135
Coordinates from ORCA-job orca E -3524.771972231556
  N          -0.09388610077980     -1.97703097307748      0.83185391636931
  C           0.03947194810172     -0.61855099850998      0.85993225663872
  C           0.06773088085968     -0.21405804836052     -0.47709872347445
  N          -0.05635176972659     -1.31464990647499     -1.30733035820352
  C          -0.14641567790073     -2.33957577627565     -0.48061533198425
  C           0.16249632966344      1.16918918154156     -0.71830231939504
  N           0.22987739310994      1.99037609858874      0.36035023395934
  C           0.19620864018462      1.46913622974693      1.59430323995306
  N           0.10395524343243      0.18600919554437      1.93054582553877
  H           0.24756276551855      2.18800591389666      2.41049161369572
  N           0.20206111247995      1.72184895881603     -1.93713280159848
  H          -0.19702109833880     -2.60632532511615      1.63893850292857
  H          -0.23578536458843     -3.37598494223217     -0.77826373026411
  H           0.01775837359648      1.16761690382892     -2.75865697597768
  H           0.17378741961275      2.72783202759556     -2.02760509753760 
  O           1.51862076742393      0.02503638030330     -4.58438024553862 M 400.0
  H           0.59159950187276     -0.25146809384470     -4.47494897503985 M 400.0
  H           1.98380876670523     -0.32539043539078     -3.79350411608417 M 400.0
  O           2.75530399682000     -0.48395967496125      3.94628701517069 M 400.0
  H           3.30353197545531     -0.17937779556844      4.68040325964349 M 400.0
  H           2.73054600487207      0.27762675221827      3.31869984315133 M 400.0
  O           1.52915899566357     -2.97321709558857      4.64306492394354 M 400.0
  H           1.81530541667502     -2.07700009198460      4.38864069587219 M 400.0
  H           2.26111165172745     -3.54089472148344      4.33663744149513 M 400.0
  O           1.88513982012565      4.34887409445392      0.09168282433793 M 400.0
  H           2.82561606042811      4.20315227664603      0.34275843840726 M 400.0
  H           1.41613278575779      3.49059588143790      0.19514485286547 M 400.0
  O           3.17330844943652      3.49858108626755     -2.49095747045698 M 400.0
  H           2.58523383230519      3.97663037637673     -1.88525127463951 M 400.0
  H           2.60266154928007      3.25476341187480     -3.24947227813315 M 400.0
  O           4.62503348685265      4.09773195186640      0.58394628992571 M 400.0
  H           4.82305581825313      4.01444707427186      1.52578679299491 M 400.0
  H           4.83312376205996      3.22309093810615      0.22334919323069 M 400.0
  O           0.70372615607028      5.58820540334949      2.32122228810462 M 400.0
  H           0.33372125239091      6.42764836878665      1.98079408747419 M 400.0
  H           1.09293073976700      5.17948418399063      1.51935050014224 M 400.0
  O           2.31658040980591      3.63739700745178      3.81528052097671 M 400.0
  H           1.93798056814656      4.43325152161776      3.40899079048464 M 400.0
  H           1.55067640168135      3.23491649791173      4.27459967412666 M 400.0
  O           3.76707812478639      1.36404127172361     -0.79834193533046 M 400.0
  H           3.20295294840174      1.48299211099292     -0.01520378381417 M 400.0
  H           3.52716681708152      2.09834379793034     -1.41228486806893 M 400.0
  O           3.12292268778090      1.55124786761420      2.13029160806950 M 400.0
  H           4.09356779395519      1.45133620990079      2.09608709363942 M 400.0
  H           2.93155028627861      2.37197669951030      2.63768127967434 M 400.0
  O          -0.01058919611935      2.63638362589596      5.12320158797923 M 400.0
  H          -0.73445323631744      3.16604655635288      4.76371411762630 M 400.0
  H          -0.28358557801593      1.71494927786676      4.94789340031200 M 400.0
  O          -0.86558054767251     -0.07079223134314      4.48820723798031 M 400.0
  H          -0.37538160034374     -0.12361220596340      3.62309330132905 M 400.0
  H          -0.40161714308558     -0.66007252547797      5.09702631028233 M 400.0
  O          -0.62290174936912     -3.71694714339400      3.07781455829067 M 400.0
  H          -1.42104060794208     -3.16098641367583      3.22832838358694 M 400.0
  H           0.05433439156980     -3.41932729802569      3.73143679410767 M 400.0
  O           5.71186479188189      0.52121301652989      1.38979216915344 M 400.0
  H           5.46243851213388     -0.39671805574189      1.59427663861230 M 400.0
  H           5.41159903776384      0.64943030870235      0.47744572915171 M 400.0
  O          -2.78043229056521     -1.95026754805113      3.24762404781703 M 400.0
  H          -2.29947073155086     -1.26933003627655      3.75274631311398 M 400.0
  H          -2.87356217388366     -1.55887526583690      2.36366481553763 M 400.0
  O           3.07028209754542     -0.89891323593466     -2.38240083156095 M 400.0
  H           3.28453172753960     -0.12136576842353     -1.82760649942757 M 400.0
  H           2.76874714320447     -1.56120149969132     -1.73893521957403 M 400.0
  O           1.51294233551946      2.77806908656121     -4.66287738931384 M 400.0
  H           1.85984499153475      3.05256259896402     -5.52045845246453 M 400.0
  H           1.52218269483849      1.79002540508848     -4.68084978649709 M 400.0
  O          -0.64031534003542      4.49926394975063     -3.71564845180102 M 400.0
  H          -1.43271979348860      3.98811396861922     -3.44910569341913 M 400.0
  H          -0.01550877187015      3.85958083336040     -4.10194352122913 M 400.0
  O          -1.81118082431125      4.34454335787725      2.80675772928721 M 400.0
  H          -2.05526260739127      4.41802683343369      1.86520644710885 M 400.0
  H          -0.88616944996521      4.66547494322822      2.78343011601941 M 400.0
  O          -1.79586966943502      4.20371776311758     -0.05605302517752 M 400.0
  H          -1.23353387583042      4.91296682177272     -0.43528007414646 M 400.0
  H          -1.15429596414797      3.48327682983839      0.09807662952927 M 400.0
  O          -1.26505162217762     -0.43760629208500     -3.72024278098351 M 400.0
  H          -1.83900037419505     -1.01260920300870     -4.25524944798011 M 400.0
  H          -0.94892673839293     -0.99545044667077     -2.97503384733163 M 400.0
  O           0.60803562509919     -3.31506829906032     -3.56046597990523 M 400.0
  H           0.68539836612540     -2.48015328381564     -3.07170909485686 M 400.0
  H           0.45777680847772     -3.05706157862764     -4.49924495895843 M 400.0
  O          -3.00261811023700      3.45505838968818     -2.54659522418894 M 400.0
  H          -3.20255843087621      2.50553524024824     -2.45050901370767 M 400.0
  H          -2.69052707487430      3.70754134598332     -1.65537555134659 M 400.0
  O          -3.27603262648061      0.65234344747725     -1.96136451948566 M 400.0
  H          -2.52442774227753      0.38212007983006     -2.52439573280246 M 400.0
  H          -3.95670980711261     -0.01226931685122     -2.20254025698493 M 400.0
  O          -2.87112772874047      1.68577199341766      2.93600762901184 M 400.0
  H          -2.39899841232912      1.18274755426530      3.61338166909858 M 400.0
  H          -2.40462584588263      2.54500263465449      2.91062869946570 M 400.0
  O          -3.14467750557726     -0.21457420438078      0.78330184969386 M 400.0
  H          -3.07821866736415      0.16312486352135     -0.11493265303164 M 400.0
  H          -2.94844623106734      0.52054049963642      1.39622888210490 M 400.0
  O           1.61520309845958     -4.85692172994485      1.51286884884712 M 400.0
  H           0.83350542645586     -4.61560683106318      2.03403213582382 M 400.0
  H           1.27384031635775     -5.47276012295818      0.82920342575997 M 400.0
  O           0.04386328039629      5.92447596508888     -1.40061317761954 M 400.0
  H          -0.12830191123556      5.46896840485004     -2.25538628014951 M 400.0
  H           0.81884798659073      5.46965007383560     -1.02413761234919 M 400.0
  O           2.95225187714094     -2.86561523325261     -0.11441203354679 M 400.0
  H           2.38136142195842     -3.42602195512670      0.44528566407429 M 400.0
  H           3.56181362765439     -2.46460234884553      0.53557793476891 M 400.0
  O           2.45758965313516     -4.88810079956276     -2.16691491640403 M 400.0
  H           1.92021964374142     -4.35327510623230     -2.78449058391232 M 400.0
  H           2.83016016003367     -4.23027643978948     -1.55385727261430 M 400.0
  O           0.50293008662161     -6.15079078022887     -0.67981933053045 M 400.0
  H           0.56468566019353     -7.10459909787230     -0.81106567125466 M 400.0
  H           1.17752851565308     -5.75349191399247     -1.28406913326740 M 400.0
  O          -0.50340951301366      7.69782103851610      0.82752397824476 M 400.0
  H           0.00033765189093      8.51730414194675      0.75569558785723 M 400.0
  H          -0.38042690062741      7.26266021099814     -0.03410650880977 M 400.0
  O          -3.27064291356387     -3.00607142607822     -0.56947961718714 M 400.0
  H          -3.03057848590668     -2.19976412149867     -0.08787950041742 M 400.0
  H          -2.84607974807418     -3.73789874438371     -0.07055030362222 M 400.0
  O          -1.94387510884678     -5.16106680442858      0.67089694055730 M 400.0
  H          -1.18487528536582     -5.47488461010426      0.14817453159357 M 400.0
  H          -1.55494999452655     -4.89284388938244      1.51655111858722 M 400.0
  O          -2.10189092670039     -4.12912227727506     -3.02400967373160 M 400.0
  H          -1.15191949424381     -3.91224828124731     -3.11283732824960 M 400.0
  H          -2.39856870779961     -3.64872583087741     -2.22869868759740 M 400.0
  O          -4.78736469646086     -1.61618415886502     -2.72418722043937 M 400.0
  H          -4.27882177714124     -1.82914075536391     -3.52444530901870 M 400.0
  H          -4.43431112605524     -2.22768134444671     -2.05710019519204 M 400.0
  O          -0.20135483124698     -2.74658428903234     -6.15794203856823 M 400.0
  H          -1.13945862985753     -2.58676689021328     -5.94524887407374 M 400.0
  H           0.11509048666640     -1.90127243303337     -6.50035334021336 M 400.0
  O           4.43394466974050     -1.98381024469112      2.17861763979107 M 400.0
  H           3.83695863282795     -1.50742910628928      2.79187918893081 M 400.0
  H           4.47144958740779     -2.88056012183118      2.55809130718091 M 400.0
  O          -2.91259801802081     -2.46541600661645     -5.01219795563907 M 400.0
  H          -2.72124428814424     -3.19986853988812     -4.37543498184498 M 400.0
  H          -3.53616630624206     -2.81403652072684     -5.66134328780848 M 400.0
  O           3.66234945616223     -4.48822266835123      3.35349293431957 M 400.0
  H           3.06120600973378     -4.84875480924814      2.67080509387627 M 400.0
  H           4.11438932730317     -5.25044836232541      3.73388906653047 M 400.0
