4108
 energy: -5551.459818907706 gnorm: 0.000925460552 xtb: 6.2.2 (655bc02)
C          57.44825940283676   85.64696945364928   66.15184307689361
C          57.00322289107754   85.77427499347334   67.60999479976979
C          49.29536672437202   91.51156837563235   74.51417724177389
C          49.24195831815062   92.77493489562139   75.37408139884531
C          55.08837978477160   82.87289517637637   75.36055950605153
C          53.76522063122815   82.52337265325973   76.05141642502215
C          46.74829606052820   76.28228431851923   65.80135374866110
C          46.98385884061573   74.95895900092943   65.06748300974718
C          42.82562128730147   86.18972446009187   65.88330381273111
C          42.64965616431139   86.70283576661805   64.45600960663906
C          59.73587603962179   93.23976965527257   58.79120703644455
C          58.62728855453837   93.96050818140777   58.02473223620630
C          42.08765406473258   80.87964615320163   54.67320712518365
C          43.46790836225259   80.27062252306366   54.43364345114863
C          50.34269908994919   95.27149567017706   65.28864054072824
C          50.14853251831897   93.98395380913266   66.08465822561560
C          52.04929194826324   85.85819309621429   48.07587210962630
C          51.54572113294813   84.41743372100272   48.20617112983116
C          48.48628629589815   96.54291763956755   75.64654700268174
C          49.49589766340759   96.78120708916994   76.76836281977963
C          62.55367489122558   76.87798319838315   52.15793971258828
C          63.39560422550115   77.57265829000089   53.22587341822173
C          56.52090186066295   90.69251047838495   80.91739178669658
C          56.10963453475510   89.35442387371499   81.53283717409477
C          60.90929685920946   92.85442746103537   57.89522189152855
C          56.47902669999421   84.82886312803878   65.30004168135260
C          55.59215684278060   86.33136145315723   67.80350493778154
C          48.17625820716147   91.47809459233704   73.46925356097606
C          50.02651462916470   92.68449574143661   76.68416422658827
C          56.30657239808449   82.72304188047457   76.27325488643859
C          52.81225791772173   81.73745456433227   75.15186865800244
C          46.71768436052417   77.48533968323234   64.86519643226752
C          45.96974039686881   74.60366467385580   63.97782859255294
C          41.50745958319176   85.72747745224262   66.50669444678768
C          43.92193417883984   87.31099864467703   63.86664106557838
C          57.75229487147557   93.01862338473200   57.19580059240009
C          41.10974672987040   80.00334049038827   55.45690277679208
C          43.46320834806305   79.05996153133496   53.50320382749190
C          51.46004233932133   96.13130482804036   65.87484021150745
C          49.02012338401866   93.10056596179423   65.54971859316203
C          52.12496471345504   86.66260929832690   49.37528639816471
C          52.31543271836312   83.54262117231589   49.19541447844304
C          48.75451822974028   97.36729159865506   74.38759955426249
C          49.39333132383993   98.17813549406154   77.38634721878617
C          61.37906343862829   76.08814890060948   52.74438617797530
C          64.60336565402781   78.32229220480664   52.66334837679155
C          56.58951720963030   90.66336507798746   79.39187492280919
C          54.64418541355645   89.00603289915765   81.28284841850825
C          54.34453703690586   88.25837461562440   52.14666437151846
C          55.18093676778037   87.03142637733383   51.77686448222700
C          53.95026920511403   88.36514618539107   53.62135615772367
C          61.92717087626035   91.99492109957696   58.63741270994595
C          57.07197548856315   84.42195313605181   63.95617869281462
C          55.44990349200600   87.77499224329297   67.32640975084847
C          48.35064063287319   92.51352928128256   72.36189781438483
C          51.53635437929084   92.85641211720586   76.51789759418914
C          56.34228585376570   83.63953925266394   77.49461734130588
C          52.20070640002005   82.54213718420364   74.01133769743188
C          46.42912044947211   78.79670051143911   65.59457738211042
C          44.58688525279238   74.19320380647216   64.49795926108352
C          40.83550905321488   84.55643709999748   65.78656253218900
C          45.07042987255488   86.30813121153984   63.72189522928456
C          56.80167970300608   92.17892191007472   58.04996928897945
C          41.54397746211919   79.69821072915856   56.88771639703556
C          44.87632176468207   78.70294914666115   53.03956437326800
C          51.93186316795627   97.24516356070654   64.94902786730259
C          47.63022353053115   93.72369811743054   65.71677294167232
C          50.78092903995847   86.97418777777580   50.02991584479564
C          53.79491715279499   83.38300441485079   48.85170663238508
C          47.90773886800983   96.90111143427691   73.20364968630795
C          49.99401564238119   98.23177137752539   78.79030065935618
C          60.45154193644171   76.91390682310291   53.63430135734317
C          64.22635839097495   79.51296870298280   51.77489051656185
C          57.02046139645483   92.00957707148095   78.81625760164624
C          59.40873365625860   88.63728192632793   60.20598495976854
C          58.83732485008984   87.25156211427691   60.53431156397781
C          51.07960482808048   90.17245333991735   67.50436753655504
C          50.04114493336800   90.63891536697899   68.52519723672056
C          53.10396730967783   88.73513522532161   77.24747622659469
C          53.67898594817836   87.32679955899617   77.11628856110437
C          48.84431195374675   81.31375606340818   70.73435754648096
C          48.07033840695345   80.21521060499090   70.01082556801423
C          42.69877854336339   78.65808788608676   64.79441318438758
C          42.16502020750367   79.72432632898096   65.74480941897708
C          42.66791609801835   83.16856839036058   61.75072648689213
C          42.24205735115311   82.08490870074212   60.75866533034888
C          55.76872939480972   95.36433483451080   61.05462971323828
C          55.02144064607720   96.26709819650695   62.03799852294459
C          46.62007406160336   82.68895887119358   51.98109782628906
C          47.00363144764706   83.88590135453798   51.11434501449448
C          45.73337730582784   96.20986853615919   69.07103703270273
C          45.57891213661474   96.80758006547184   70.46624342103850
C          57.08568432791872   81.99826849195566   52.32851314553329
C          57.57622813052905   80.82737288900452   53.17524076897297
C          53.91362257558108   97.10032883650098   80.73365815120137
C          55.18224096914253   96.25825500849767   80.59681339287388
C          54.20806764069840   87.75751789988196   82.05067778471791
C          60.97882949728401   82.88953256344600   52.00569187374870
C          60.15414068125475   83.99333058432228   52.66371257147540
C          56.44780258402719   86.92336047172071   52.61501204352099
C          60.93629775085916   88.64431638609328   60.08416956892856
C          59.20334541865747   86.79075990274345   61.94710337772057
C          52.38823692480386   89.80551776619963   68.19911435220493
C          50.49705801880891   91.87394201178851   69.31396755538992
C          53.72322382198625   89.76945143085909   76.29995831062782
C          55.15965223489244   87.23334346161094   77.52262181117165
C          50.21082890538075   80.86086952228708   71.24773198517826
C          48.47887931046174   79.96726367055243   68.55958602249399
C          42.59360586065223   77.26744511678358   65.41796327561769
C          42.33341210920879   81.13916104716979   65.19880835854200
C          44.09434860377663   82.94801018699312   62.26408624428613
C          42.85644585865338   82.25657216402556   59.36426349916673
C          55.06935233946398   94.01075149674035   60.88491547318507
C          53.58285942248101   96.57498774875248   61.61262139896758
C          47.05596661398538   81.34226463852160   51.39302332399585
C          48.51177131577208   84.10623665417475   51.02422552333112
C          47.20127955385278   96.00380208958998   68.69081358362254
C          45.68902001018182   95.75413720314157   71.57598153449443
C          55.87280845129749   81.64279813826754   51.47799107396869
C          58.33514712014920   79.77742532483741   52.36620102161530
C          53.69038423556545   98.02223092654398   79.52843904669867
C          54.96518118049534   95.05821339547568   79.67687824105766
C          61.55802977023242   81.89757597071716   53.02054710413258
C          59.48974173449270   84.89342949001644   51.61590812187915
C          53.22970400011541   87.12703273380527   54.14504809188418
C          57.09940639931190   83.82386847654251   82.92226446256407
C          56.66153633173569   84.88968218747515   81.91876130960428
C          61.51680781213451   90.04564298076971   60.06425268788529
C          58.57609453769827   85.47006542097036   62.34905696779212
C          53.49515751636206   89.30088627602173   67.29167115648364
C          49.34330824994433   92.41468557954492   70.13059475266185
C          53.24474752585235   91.13109157767850   76.77104942255390
C          55.43167143469102   85.82879048222971   78.00884838216372
C          50.91434511027303   81.99515836741982   71.98002228898009
C          47.30114327396453   79.36926475144118   67.79825835377235
C          43.21410633702467   76.21363534708777   64.51030529050676
C          41.42653824223330   82.15274037672809   65.88005007263796
C          44.45857518662989   83.95419714040699   63.33480254267089
C          42.73754241657875   80.94312956973015   58.60964474763365
C          55.97519451163754   92.99874290603967   60.21553371206495
C          52.85320416504201   97.37583444884594   62.67757272920848
C          46.68928923349472   80.23455102933315   52.36613099515709
C          48.85784197010634   85.49879713669907   50.50701398710073
C          47.27818947434811   95.59407326369282   67.23663532673287
C          45.44272302066078   96.45676014202103   72.88786376869780
C          55.46123896112730   82.77692625576172   50.55342454708678
C          58.73255836249979   78.60557815809251   53.24315541987582
C          52.28196388837225   98.58434875509387   79.57872906435219
C          56.21998339587644   94.23507786060303   79.48124741850960
C          62.16386443398356   80.71833108868020   52.27988548660176
C          58.30158158383699   83.01310963946797   82.43457348220976
C          58.67329282656076   85.98426994240100   52.28363084848276
C          55.78699505618838   85.95748032459069   82.55330200878842
C          52.68498155171185   87.33888767612976   55.55956773769828
C          59.61667808432893   83.76759524930617   82.61143575588014
C          60.74418931378449   83.20142504207691   81.77559773675011
H          59.33328783453747   92.34283532418078   59.26209995165313
H          60.10128505203640   93.88805954052481   59.59034108384564
H          57.55596180967529   86.63997465541199   65.71681777924516
H          58.42928728594533   85.16807465945905   66.13265799976114
H          57.05469595571910   84.78892559229789   68.07855321975846
H          57.70701093379310   86.42512313020016   68.13381332846784
H          50.25851714676807   91.43985764444172   74.00760062546760
H          49.19130050270567   90.64274931360161   75.16801715100394
H          49.61737449910426   93.62883791705893   74.80529824644465
H          48.19458030932316   92.97764107862844   75.61539517490714
H          55.24278855176043   82.19674631259571   74.51760230720339
H          55.04977379641302   83.88937954865321   74.96723847400929
H          53.97758045956126   81.89964647945570   76.92186864110607
H          53.27307081249792   83.42860684166709   76.40946909860151
H          45.81701785859899   76.23593460073162   66.36270153730365
H          47.55811697455628   76.41937074362907   66.52508538369297
H          47.97099867686555   74.99602918095104   64.59720076009495
H          46.99449481578741   74.15293389394159   65.80685502565845
H          43.54444886725748   85.37029112627879   65.89931477264263
H          43.22670621834291   86.99671524052012   66.50029589271168
H          42.32061410568652   85.88842761681946   63.80859564574422
H          41.87407040442113   87.46996420312382   64.45010422643200
H          59.06881851848026   94.70118063758474   57.35537709612230
H          57.99597841576225   94.49783410113224   58.73719066925114
H          41.63543330577608   81.11374053645382   53.70555184971399
H          42.21561024627431   81.81885268741131   55.21441272579673
H          44.09741667262257   81.04129754376972   53.98233693706099
H          43.91977296047528   79.98966165100640   55.38436190761777
H          49.41308271895722   95.83968110543799   65.29132218292740
H          50.59150967272475   95.01020112121405   64.25845577395717
H          51.07939547423271   93.41330018606806   66.05539590086946
H          49.94342206129917   94.23636150917905   67.12708001201119
H          53.04553535358402   85.84448175338112   47.62945330134067
H          51.38936152284132   86.38161127043404   47.38046714040772
H          51.60459740389896   83.95340002752475   47.21857322809333
H          50.49320474319052   84.43070191423728   48.49198462172978
H          48.50788086967333   95.48579191798899   75.37950172796194
H          47.48754660603821   96.76132752121221   76.02787666860596
H          49.30131130431297   96.04049210053664   77.54702185234929
H          50.50676707072316   96.60850361122665   76.39879382325006
H          63.18366724224704   76.18715143148890   51.59296045172972
H          62.17391333899604   77.62109448717578   51.45714435613346
H          63.74813233819703   76.82943298012964   53.94552261087553
H          62.77358875352043   78.28714134017743   53.76270115949164
H          57.50478911685823   90.97099402787369   81.30441888106077
H          55.81253286213240   91.46314576103067   81.22615200117656
H          56.74674588248752   88.55703641087850   81.14026921802326
H          56.27422514102970   89.39738365460970   82.61091687886244
H          60.54362516966496   92.29116974113451   57.03610426879165
H          61.40139607727388   93.75515614853815   57.52375082391814
H          55.57942884803072   85.41335285918515   65.11417983618058
H          56.19967561803026   83.91548618478595   65.82956569157692
H          54.85868834515992   85.70088875983976   67.29952495549112
H          55.35900222132078   86.30776774092315   68.87120584829597
H          48.13463490049147   90.48663297551064   73.01405544643913
H          47.21690077825146   91.66897003976956   73.95250414606865
H          49.68403063135875   93.48470476892763   77.34185513960605
H          49.81165918128826   91.73761798186632   77.18086966677589
H          56.35990156360474   81.69424934141425   76.63316684261646
H          57.19948501161764   82.89813844198591   75.67517983109492
H          51.99822266102623   81.33549814803554   75.75821491134992
H          53.35193464988866   80.89214194954897   74.72451619275763
H          45.93422067939380   77.34765952195519   64.12133781814893
H          47.66817619149388   77.55091662354751   64.33443290393596
H          46.36455809870636   73.75310243718570   63.41641488837178
H          45.85841625280469   75.42903790983551   63.27609376421401
H          40.80196917274802   86.55823193385091   66.50006834321485
H          41.68452441947665   85.45350021884060   67.54877538319201
H          43.67647494483245   87.74148285191416   62.89379555668558
H          44.27196218130646   88.11928058883389   64.51081419252122
H          58.37628025452795   92.32899257573875   56.62900289875630
H          57.17381516361837   93.60772027603277   56.48112677732717
H          40.95444914439865   79.05681688313084   54.93857311000480
H          40.14936821646082   80.52003911093119   55.49635717499009
H          42.84464794863703   79.27117331017513   52.62645213670016
H          43.03803528389535   78.19412688348946   54.01098817548918
H          52.32071059049810   95.49641502808147   66.09128831922750
H          51.12693281215252   96.57844922793507   66.81168684680701
H          49.04391248862811   92.14644694344506   66.07845706820716
H          49.17285902204296   92.90155505727803   64.48744677110388
H          52.76582782164662   86.15046890399898   50.09453937674731
H          52.59965289960132   87.61884585974970   49.14789440969784
H          51.86399388484407   82.54719763408765   49.20903255976625
H          52.24495337079385   83.94378061858937   50.20759575272606
H          48.56325163747844   98.42427252269012   74.58146414309792
H          49.80543599778215   97.26174365230021   74.11194243190647
H          48.34169050093983   98.46328900343728   77.46961432700274
H          49.89085113960513   98.90982877960391   76.75006933469926
H          60.79822696483728   75.66555497629329   51.92245542896381
H          61.76030375396427   75.25896727360340   53.34423357682189
H          65.22143336008757   77.64105079036628   52.07579718337506
H          65.20540454205265   78.69323313675100   53.49618987393061
H          57.29596686972325   89.89944788995773   79.06160376751569
H          55.60778999869226   90.43393452393568   78.97795330328496
H          54.47755945510411   88.83914780883715   80.21826442858752
H          54.01984804963354   89.84224210012951   81.59865641732451
H          53.43051575994910   88.25864578441268   51.55189286745343
H          54.90448747610932   89.15747556710082   51.87986561891977
H          55.45709400251237   87.10090285264714   50.72265351245323
H          54.59939892849131   86.11806410491486   51.90716037400405
H          54.83244796822679   88.56004878489885   54.23485509210115
H          53.28103783949904   89.22352930502524   53.71189498452807
H          62.18819601404417   92.43941912581482   59.60173368918230
H          62.84697761491002   91.90791285308707   58.04547886181652
H          56.29809975947716   83.91233436023438   63.36768188091762
H          57.89778133281633   83.71911278993157   64.09583771243221
H          56.30998490667301   88.35146238296166   67.68985828315523
H          55.41763451344794   87.84837377972855   66.23736503854983
H          47.42668471562440   92.61382880855238   71.78762664514115
H          48.58084239456809   93.49219860571699   72.80030785774288
H          51.73490818024489   93.66287510806843   75.80433738235244
H          51.98447713497704   93.12926505464388   77.47640852973849
H          55.56364634348795   83.36383687704114   78.20989009483309
H          57.31403199454191   83.52050400946017   77.99167426969923
H          52.97758114120742   83.01675372069849   73.40407315570395
H          51.55259146276477   83.33425111605403   74.40749736326813
H          46.23656773539081   79.58990494759809   64.86396356408254
H          45.54718886453121   78.67259414591837   66.22750356484710
H          43.98120122423965   73.88339613096090   63.64007461060813
H          44.67970613025937   73.35488100066125   65.19209823395290
H          40.45005446031017   84.90213287726512   64.82137321100021
H          39.98430195635547   84.20785947303519   66.37342889159471
H          45.33608240716433   85.90926632282056   64.69991141539099
H          45.94587125186351   86.81194758773522   63.30329258139771
H          56.18713298522577   91.55069121404996   57.39663600570047
H          57.36611119116106   91.53406189124682   58.72464030877625
H          40.74786980261299   79.12573639497117   57.38066072600666
H          42.45366655935206   79.09396272443219   56.90933700596459
H          45.54853809533870   78.58769981355056   53.89302296584113
H          44.85288850412780   77.75765855956470   52.48331549226700
H          51.10046769743209   97.87178733712220   64.61163103938804
H          52.63559342247970   97.88010603262418   65.50265351297729
H          47.48506277905173   94.54102021769229   65.00685579709932
H          46.87143252000923   92.95664337994100   65.52632420407981
H          50.07204123442282   87.37372852958966   49.30073323896692
H          50.93811454447147   87.73456193018360   50.80510833039684
H          53.90081540047355   83.00320976000030   47.82913713850706
H          54.33019735554900   84.33122643174896   48.93337151914174
H          48.14127806477996   95.85400184209675   72.98395658888640
H          48.15716175733706   97.49578211614407   72.31487884013937
H          49.44654112203186   97.53975012204418   79.44427485602242
H          49.89927876145686   99.23624570792272   79.21259499807789
H          59.60309172038228   76.30346529637453   53.95946110614871
H          60.98798769324831   77.23692439314743   54.53523568404329
H          63.62032766389679   79.18110831571340   50.92963256282763
H          65.14181925373229   79.97237559711854   51.39006099886302
H          57.21494516032569   91.89626242792663   77.74176081825509
H          57.93066351583209   92.37293431296301   79.30027905825524
H          58.98295165903489   88.98687998048446   59.26320618909882
H          59.10034689191064   89.33911394994236   60.98377129178066
H          57.74937661214621   87.29618473412613   60.45488731012919
H          59.19827447472117   86.51366985822447   59.81528936908694
H          50.67569181450564   89.30926420314641   66.97242145291570
H          51.26085973126026   90.96009247422754   66.76958988683268
H          49.83060338032570   89.82506574230149   69.22117982923538
H          49.11055523565813   90.87384309121212   68.00634774671586
H          52.02761650231616   88.70122994346416   77.07268946002765
H          53.25499177282617   89.07861822315309   78.27262482578415
H          53.09964254936352   86.67359061785221   77.77430761720625
H          53.55866254275346   86.96117533890245   76.09429880445923
H          48.97418372771560   82.17548678631324   70.07563966717437
H          48.25565041678289   81.64726454472965   71.59468305286188
H          47.01262479471382   80.48661475336873   69.99806447910532
H          48.15135950973328   79.27998169770498   70.56544600189713
H          42.14433794197411   78.66605337303787   63.85451037137645
H          43.74547760452661   78.86521049790338   64.56309508416587
H          41.10356584386982   79.54435488030173   65.93205332311146
H          42.70104637331331   79.63696430258256   66.69088850170236
H          41.97915427567452   83.15412419561646   62.59986160641117
H          42.58854480565080   84.14778858895509   61.27404204683752
H          41.15398379229175   82.09631748187117   60.66447875090881
H          42.53216980556132   81.10783984915625   61.15112224526462
H          56.76984174804004   95.19064625535553   61.45357919109202
H          55.87778732823252   95.86090733758674   60.08943625772262
H          55.57253648467027   97.20454804979734   62.13717160025183
H          55.00158242212634   95.77042789767096   63.00863945047150
H          45.53320973918447   82.68829091146095   52.09968158113875
H          47.06980098797584   82.79847221495405   52.97082513298766
H          46.54655599711817   84.77675671092211   51.54618589555174
H          46.58781382277157   83.77231596528439   50.11280167357713
H          45.20444351256473   95.25819836389454   69.01834935467447
H          45.27997350943837   96.88564179187480   68.34404343352141
H          46.33861821226607   97.57766064268796   70.61565368619269
H          44.60267037306387   97.28699142345302   70.54755155725277
H          57.88815360356292   82.33098431121554   51.67066804979698
H          56.81964276390013   82.83358821763312   52.97925788180297
H          58.23063443607209   81.20214428031032   53.96585150782888
H          56.72870984532840   80.33957141415061   53.65892986594651
H          53.05945750231486   96.42921881429638   80.84288567241333
H          53.96865491546568   97.71581661553326   81.63255632083734
H          55.99745111191825   96.87727642291875   80.21837500032595
H          55.47641305968367   95.88795369267685   81.58063415338803
H          60.34949710509779   82.33783875864826   51.30369985298930
H          61.79629112371597   83.33343661589284   51.43342459837670
H          53.15206110317843   87.54762780344518   81.85161944875462
H          54.33775056182080   87.92070551704651   83.12286040856787
H          59.38196830062218   83.54590751832033   53.29294447641029
H          60.79356212735465   84.60513485749784   53.30314776096361
H          56.17584392559846   86.65304971485229   53.64104126980312
H          56.97802981983217   87.88164674795915   52.63420803957634
H          61.39619975769996   88.12425541080678   60.92283741802535
H          61.23351549805620   88.14301304568573   59.16266950107167
H          58.90276346408902   87.55302794517756   62.66423022690922
H          60.28237284294866   86.64494797423978   62.01223909595698
H          52.19713005272661   89.07333280842101   68.98216403984382
H          52.79621223534303   90.69798312787633   68.67964583595133
H          51.32402200062778   91.61999519451349   69.97562220504985
H          50.81443308948140   92.64840106512274   68.61303088134406
H          54.81106125543235   89.73787623090536   76.37615750025144
H          53.42612109599350   89.57888089636452   75.26886758472210
H          55.82309759592653   87.49223806133141   76.69969466566081
H          55.34636515706018   87.91729416526867   78.35196500891078
H          50.09683589918515   80.00812062346570   71.91637023308724
H          50.83005578321982   80.55080671380252   70.40435253424228
H          49.33282822195707   79.29026225651045   68.49189872324099
H          48.75260538126266   80.90483713498020   68.07050437362349
H          41.54125089585919   77.01025107886082   65.56097839804113
H          43.08188605913741   77.24403134610650   66.39276643066405
H          42.04774224236785   81.14635663532034   64.14226129243220
H          43.36932844369217   81.47318180433773   65.26639008945453
H          44.80452380762349   83.02564861622606   61.44229957099574
H          44.16702284257700   81.95048527651129   62.69726487533404
H          43.91692544855916   82.49313105118141   59.46039620390433
H          42.35697286196174   83.06024168308662   58.82224196185508
H          54.15471464468359   94.12311475431783   60.30111489621250
H          54.81951673214851   93.64022443009559   61.88086481058701
H          53.03551414896623   95.64497367447639   61.45879087120174
H          53.57492763794452   97.14830962589920   60.68458040425924
H          46.58107470314435   81.18560588343745   50.42381282307869
H          48.13815925106889   81.32978066796180   51.26653228761579
H          48.96509097680494   83.97404262309412   52.00800214032697
H          48.96646477165575   83.37931393912608   50.34727563464583
H          47.73539881001458   96.94926116519134   68.80689965629003
H          47.65765757064490   95.24249990106678   69.32058231249123
H          46.66004832297612   95.26633814226393   71.54734336858513
H          44.91175671939699   95.00264621396096   71.43313905925855
H          56.08251554914538   80.77362214739854   50.85245998564827
H          55.02183545744958   81.39512898892548   52.11597094453452
H          57.69783489563909   79.38471864989359   51.56978571946112
H          59.22320750707010   80.20403990744380   51.90170390771257
H          53.83021965068357   97.46766489051898   78.60266296999070
H          54.40082748055785   98.84865732071437   79.56528072740551
H          54.18889029242337   94.41216372787108   80.09111161709085
H          54.62704454282597   95.39193931048520   78.69282098687623
H          60.75104999765879   81.52600312369331   53.65718475360412
H          62.31028399011288   82.37933610291296   53.64342953084887
H          58.85221114847491   84.30726645177343   50.95490378776744
H          60.26589996756376   85.37486381705565   51.01710560658186
H          52.40177833301408   86.89096048102002   53.47386008416400
H          53.90769168642130   86.27331796268386   54.17186788078985
H          57.33952147571951   84.31266995474455   83.86880639840570
H          56.26016809843951   83.15110654240399   83.10682712582729
H          57.53647889197646   85.41297017728583   81.52324885678642
H          56.13942930576625   84.44512333907852   81.07135044345544
H          60.81959472610509   90.27044837861642   58.16049325141411
H          57.10926829409148   86.45566262550719   63.37781917930771
H          53.94013393302826   87.99343435133594   68.76761786336589
H          50.22105840842007   91.69284864930636   71.82957784280369
H          51.86284175711764   91.18016009045644   75.27348477262113
H          56.61486912856055   85.44607907764994   76.39999236636991
H          51.28176283164973   80.70972020205228   73.52790923120611
H          48.34455482561042   79.57567406377021   66.05103450996390
H          43.92595792511371   75.28945853519437   66.18512139072197
H          42.58185796031075   83.59751711889189   65.07873028071296
H          44.68627014110085   85.34559816424344   61.88601218788167
H          55.38408718329176   93.69246617743781   58.39624658337311
H          41.20883274988736   81.69936985122452   57.46219129450395
H          52.97424159114514   95.75047158690832   63.89357697146445
H          44.87692736019316   80.06937069324981   51.43878227669562
H          47.62931053053021   93.68446785079458   67.83340398405564
H          50.79142835671431   85.12190997646957   51.02637550973298
H          46.27132711299839   97.58113374506432   74.31563154941507
H          53.92253712861496   81.59183606793788   49.94237179358443
H          51.72698939962323   97.16244242593643   78.21012357153944
H          60.51055472321477   78.53759613243841   52.26836618861022
H          63.95924978460333   81.07872756600258   53.17778118661493
H          55.04502346672905   92.69949224828692   78.82188304800991
H          54.97238785497290   86.30390682364775   80.71238074840645
H          58.17437763544996   82.76389701879360   81.37953177567069
H          58.35846585848289   82.07268433157051   82.98406156514140
H          56.94512022325193   85.18436429418875   51.51893082793909
H          51.92686152243266   88.12822885072011   55.55192275011353
H          53.50032198729514   87.65910164414531   56.21683464079364
H          59.92918608035200   83.76720712558463   83.65766848237715
H          59.50319199896488   84.81020994400944   82.30631652611848
H          52.79862272927625   85.39791435763001   56.06897099234204
H          51.29846158272375   85.83648982759900   55.60757816369276
H          62.55457485804424   83.62374252333309   81.25944604534509
N          61.39857479994128   90.67357822913299   58.89293735599806
N          57.59327528949103   85.56927982019819   63.24967630194301
N          54.23404301988065   88.34837998777256   67.86062160578973
N          49.39518123584313   92.13270096705543   71.43561440304492
N          52.20830433371203   91.64651726592595   76.09751932525450
N          56.11493799608051   85.03297071650256   77.17506122376177
N          51.42820182227229   81.64906362135214   73.16648716008540
N          47.49461024443428   79.23236637706729   66.47347359226315
N          43.87944236226252   75.25596673677504   65.17485888484781
N          41.70442575220267   83.42028822174720   65.55288417579341
N          44.74067878432516   85.18109896052667   62.87773130487673
N          55.93361136747658   92.99463569183025   58.87366562945714
N          41.81268461022476   80.90523506826669   57.64229834104985
N          52.58839452595114   96.68551965663119   63.78596845584172
N          45.44295520713713   79.74098625995197   52.20541520467865
N          47.43686255414359   94.28033293235997   67.03460738419133
N          50.16842311051121   85.79488868301489   50.60935707919933
N          46.49939163235273   97.01815095523240   73.50751719853561
N          54.41903960148478   82.46188910473508   49.77393294325180
N          51.40059125417709   97.90637213379321   78.81279580942166
N          59.91418390405979   78.06189009052736   52.93781411983495
N          63.47072372220990   80.52669476241768   52.47492386349940
N          55.99095739496970   92.99858250584218   79.02841873307544
N          54.99359267540025   86.59929096006341   81.68744383454056
N          57.35578266189573   85.92819661500120   52.07687629023516
N          52.10275778950422   86.13577035675638   56.15374362409811
O          62.07916488427666   90.54109994087928   61.03862944992535
O          58.98623723539838   84.38860601661656   61.93354915291221
O          53.72151943848242   89.77134300209484   66.17787583082747
O          48.42480241820028   93.04899656202144   69.61806313756600
O          53.74681234259442   91.67714455624841   77.74237347407232
O          54.99571321770817   85.42410447446935   79.08324461627609
O          50.99689798377204   83.12781063051246   71.51765381757286
O          46.25432683790715   79.06244723562985   68.34124423455359
O          43.10329619012889   76.24096684597968   63.29617233625987
O          40.49459673695222   81.82338513102883   66.60765479230329
O          44.47349943088425   83.66782249626958   64.52654470307613
O          43.44172054311898   79.98269083124129   58.89338953947581
O          56.66895528060720   92.21902357845104   60.85441905712867
O          52.52354491594810   98.54682791427203   62.50764494635153
O          47.44080033784365   79.86068464057453   53.24514293793333
O          48.03920642209343   86.27207613337742   50.04948872199923
O          47.15370405116890   96.40443212035262   66.32371081018462
O          44.31958725178830   96.59703435661851   73.34880320143951
O          56.04119402355867   83.85351967017449   50.50551806783184
O          58.02103089135145   78.18667616058629   54.15121685874156
O          51.96430919706238   99.53341696544581   80.26981481080246
O          57.35469875445515   94.65959623564470   79.69332948258088
O          61.48716288748410   80.00872874038623   51.53859838177422
O          59.20050288515857   86.84984434610047   52.97896089077360
O          55.82604008210166   86.22788331327220   83.74808986758009
O          61.85511116033049   83.91824216262417   81.90776336885838
O          60.65157034085035   82.24215050984438   81.05372904055397
C          53.04807238794503   96.18250099808404   71.15211284764416
C          52.27898771291319   96.05967508956758   69.83367654402545
C          52.02239630260255  101.96331801716349   60.37409373039250
C          51.22304346821510  101.67172127697427   59.09769474798492
C          61.02503723497434   98.50735528119253   59.26462756946572
C          61.59790893326443   97.88999351818620   60.54095818899767
C          55.08606861526261  102.69178375867369   68.63196404475360
C          56.22101182731630  102.50516219597402   69.63883080450262
C          63.45714073572265   94.69626090028466   65.42513796151174
C          64.58106438101737   95.40942452168474   66.17403425119380
C          58.34230872644935   85.84134922557605   73.01651511785491
C          58.42221792230584   84.42883070367719   73.59239591873232
C          75.28455413527909   92.98038297861059   66.40816075594103
C          75.90353247546918   94.34188283248974   66.08194980168166
C          61.83021768715638   76.81021593715195   65.79489703680210
C          62.75955446606982   77.46267225292208   66.81813165180486
C          69.80365814116662  102.89828304348042   68.31834996777643
C          70.00267644951090  103.79585307997151   69.53764563319147
C          74.29004270507191   76.28706925264869   64.09899579801150
C          75.25499443713323   77.16594866812716   63.30091347804314
C          62.27454878407248  108.29056963700801   70.83688987816905
C          63.48829090296706  107.41103836942310   70.53183062934332
C          73.63348825199044   85.48258972146643   60.49677253632026
C          74.32332356332131   84.15339428326345   60.18228404684817
C          58.87728984787434   85.95406628802755   71.58526915925979
C          52.34334865173393   95.58641214626390   72.37274556514264
C          50.85410234380901   96.61910322603087   69.86113180023703
C          53.43808584770166  101.38697083867373   60.34497254579124
C          50.31511058549066  100.44270508256692   59.18679870034679
C          61.05967434141802   97.58722651180723   58.04297808278115
C          60.95293416522984   96.56532012221123   60.96193896308340
C          55.30596666072888  103.90009052689931   67.71812783004576
C          55.81936894358968  101.74649669689244   70.90446241635647
C          62.06245775626945   95.16111216337619   65.82363675616955
C          64.53942621505327   95.27571295602357   67.69537990067910
C          59.85149699149778   84.02412318239998   73.94132427560797
C          74.68098607348666   92.29741834466942   65.18053927733460
C          74.85171130861329   95.41556933704076   65.80522353425629
C          60.33966822675651   77.04473392906310   66.04540393800156
C          62.86691238103498   78.98045446767098   66.66353260134754
C          69.61047391598545  103.73281079353409   67.05331603392519
C          70.32557136258143  103.02149746151757   70.81689290778445
C          74.45042271515429   76.47840968307278   65.60841991296154
C          75.34063396949669   76.79204242061211   61.82022330554409
C          61.73154778320453  108.16805095847488   72.26325208796652
C          64.21793376160937  107.88387107484709   69.27574469074061
C          72.77875721538585   86.04623086992365   59.36013442380298
C          75.45017014385776   84.26248690110542   59.15829286361240
C          65.58154958654981   98.28929419586662   61.95596532549210
C          66.47130736417259   98.87700239364021   63.05434589273941
C          65.62791021466798   96.76472757473972   61.84232435088656
C          59.54147949404620   87.30492056438203   71.31589572323553
C          52.02164496518976   94.10194607618848   72.24253854841211
C          50.78123649552912   98.08738991850625   70.27649223563307
C          54.24848324353535  101.79009244794925   61.56817103444248
C          51.02073774446868   99.12700762575751   59.50473882286871
C          60.18832074467112   98.13368391318136   56.90879021311479
C          59.42445594807877   96.53063925887170   60.87361496424101
C          56.65471622097291  103.90575719898847   66.99890339142651
C          55.23909035755773  100.35167857562014   70.67740857984047
C          60.99749213713390   94.46219980001273   64.97519043435020
C          64.43977056883971   93.83647527491854   68.21091281259453
C          59.95348167092443   82.60894317813332   74.49285665398637
C          74.02544779928732   90.95566814647178   65.51509643992283
C          75.46243915540731   96.74634240680952   65.35426153295006
C          59.71850493434309   76.10399891518449   67.07665226656881
C          63.65249140017698   79.40772761959002   65.42633979550330
C          69.42996025709041  102.87407476783638   65.80195936811481
C          69.19967202728576  102.11276265188420   71.30626979870233
C          73.92062855278135   77.81612273116845   66.11154943198356
C          74.02709735758934   76.98515853864133   61.06084273831495
C          61.02215431362085  106.84771111402851   72.57317411856300
C          65.47727440870793  107.07132790827218   68.99252037149169
C          71.51621445492086   85.22326240526760   59.07886147654986
C          55.75386128913774   89.28655703895214   71.32115208227106
C          54.48951557853740   90.14168023188454   71.33241207133366
C          51.22957559951995  100.94661297471211   66.54332972192489
C          52.08597947930322  101.66325700822985   65.50223120739578
C          54.25770296278057   96.52022859447824   57.70052422284534
C          55.59438630549079   96.40982781090123   56.97003936116062
C          58.49503796035812  100.56276766959716   62.53155091966958
C          58.04886116187318  101.58379505226442   63.57892707284616
C          55.91205499628180   97.68128234913844   66.58444540911451
C          56.94986717643190   97.26045583621350   65.55134686453965
C          68.08615153662866   92.28929281613101   66.40115652770595
C          69.19634528977026   91.49079851713695   65.72194270607447
C          58.39130532838453   79.26505230333878   71.88497344929121
C          58.36690246330160   78.54232340111362   70.54168124719111
C          73.45560880355080   98.93503132271464   67.23224749090885
C          72.25797732683640   99.85878033796803   67.01917143019892
C          68.12924680239500   79.49015949301332   64.60492808144785
C          69.62498559679749   79.17794768335708   64.56977938266093
C          65.62942102568114  103.62567671860296   74.34509959216052
C          64.46182092919047  104.59744430880652   74.51136877895208
C          70.61972057744713   80.40807891556319   61.29367320375314
C          70.12642335980273   81.81538228143289   61.61384592753654
C          75.97222423467466   82.87738421659354   58.77048315192003
C          65.75731099607073  102.13334782579403   69.24033385599391
C          65.41392841783681  100.80778479724447   68.56810394301141
C          66.18889440553716   98.25213989568698   64.41931316005524
C          57.00566719033908   90.06928019418166   70.89506092054451
C          54.50163733299913   91.24646755413890   72.39077689231723
C          51.88924449832097  100.82869399118567   67.91880676503077
C          53.34986450515099  100.88313971905801   65.11833896837385
C          53.21110321981236   97.36252978500745   56.96058786595052
C          56.43990701558221   97.67384533772285   57.11202581248604
C          57.48219163052757   99.43373347978773   62.32078943200181
C          57.84501423967224  100.95506965020620   64.96343409242216
C          56.54739899612643   98.14977160356111   67.89397046347806
C          57.67407177070886   95.96839574434773   65.91135220054402
C          67.29515691673558   91.48915983296565   67.44061586588509
C          70.41262564779403   91.25164431778695   66.62066038946406
C          59.81100759569615   79.45375302640069   72.42288467081352
C          58.87692722178438   77.09873933227239   70.62033079812416
C          74.72993757038149   99.43293104524410   66.54460705725575
C          71.81160823470282   99.95121744189613   65.55330480005858
C          67.19801570637087   78.27526912434763   64.68882525684974
C          70.22475860805899   78.71047337671760   65.89850534923799
C          66.05283345834410  103.47603668682184   72.88532946960586
C          63.14588748025535  104.04100030008152   73.95565519564335
C          72.02693374035776   80.10264334495993   61.80500814274518
C          70.79430210784739   82.87193585322673   60.74161632412734
C          65.47536653760919  103.34619720317139   68.35715034786951
C          66.44321542190097  100.37208285499538   67.52796370289316
C          67.01390326844461   96.22616508385343   61.50209987196376
C          78.17866319451795   79.76875107260886   60.83808447086135
C          77.08181162567810   80.56757854388350   61.55721779788181
C          58.10570031304710   89.11393269007944   70.49422853446504
C          53.16698126511818   91.96132363565890   72.43022243206634
C          50.97764792708041  100.07743926526695   68.86875591464121
C          54.04562539585852  101.59670811052432   63.98139736753490
C          52.03633172410827   97.56771151461407   57.89788428953225
C          57.84715420686395   97.45871954393652   56.56737029676563
C          57.99902676610995   98.49237435564142   61.24939509232620
C          57.88712604582691  102.02461358110715   66.03914052095840
C          55.52625953316115   98.83142522006349   68.78248219326127
C          58.98448355681029   95.83039078740839   65.15744652387617
C          66.45310206922019   92.44669208693476   68.26810154416651
C          71.59551986024864   90.75387891839445   65.80513055832550
C          59.79664049784974   80.32567702411750   73.66127233759133
C          58.69770595951382   76.46284306707315   69.25972737416045
C          75.92430849567864   98.61635931759594   67.01320635445074
C          70.47856133543144  100.66738082328510   65.50266342357899
C          65.77852170530520   78.74847810882247   64.41628063188223
C          71.73524364009626   78.90816521806971   65.86673107236331
C          67.27819205111450  102.59114452516488   72.72842175436918
C          62.08442314314731  105.12317644818982   73.97393506563193
C          72.31952851722608   78.62056548950950   61.66426438405817
C          70.29409804403083   84.27081175908550   61.06277314961035
C          65.88022315482034  104.65724140028104   69.00898065190820
C          78.88558508445814   78.77507945934619   61.75668725781040
C          65.87355091838579   99.34387214696920   66.57402931541327
C          76.15560467773378   81.16434612634762   60.51703454814316
C          67.00602825971644   94.70614692172241   61.36568548615061
C          79.74058360292238   79.44319556404501   62.82742690252608
C          80.22063311063513   78.43475486768365   63.84911594332620
H          57.30436747613731   86.17661584865409   73.04400055310978
H          58.90526795805576   86.49679989788152   73.68275865800749
H          54.01679250543331   95.69753846039022   71.02823894164688
H          53.24910980859561   97.23600650706858   71.35357791753191
H          52.22223819364387   95.01067415793663   69.53750165798559
H          52.85407374485586   96.57902575587615   69.06486563700489
H          52.10554890354391  103.04479143982918   60.50008380787865
H          51.48204208028132  101.57543704169228   61.23807004932082
H          51.90634547745859  101.57536432743544   58.24987171261713
H          50.57796273281419  102.52567718070118   58.88256205995571
H          59.99853112521673   98.80798878507439   59.46402578055289
H          61.58660156062633   99.41702748474520   59.03788978058911
H          62.66983213971294   97.72006392107029   60.41685565206199
H          61.47181454653999   98.61634721084565   61.34721726182894
H          54.14743536806386  102.84261895038216   69.16959093611533
H          54.98327080299981  101.79071141613319   68.02691877263213
H          56.57256257238781  103.49010347136432   69.95624766983762
H          57.05168043774169  101.99321699913942   69.15184319838863
H          63.58883796464288   94.87177044584405   64.35374561566937
H          63.52754703555788   93.62242662508885   65.59041417487040
H          65.53547771520564   95.01790746025468   65.81416842631391
H          64.54928176552313   96.47515621671020   65.94947073076746
H          57.99799599772167   83.70918109874670   72.89503009380752
H          57.82667340186278   84.41268066501861   74.50429224420311
H          76.05980810312985   92.32954358918177   66.81992405246814
H          74.52459086814216   93.11085085961319   67.18013144427267
H          76.55137506686194   94.23725485030329   65.20856012075708
H          76.52802102404110   94.65339995123435   66.92328484429318
H          62.08090848616833   77.19617264081815   64.80614007905598
H          62.01652654931214   75.73489282384384   65.76251197353974
H          63.76185708970510   77.04801850490654   66.70750801088110
H          62.43090336639155   77.22888715042176   67.83129263276084
H          70.67306826288271  102.24740480947980   68.20275528913012
H          68.93168808968123  102.25988848289950   68.45930344463967
H          69.10960876417951  104.40423541609640   69.68134422358737
H          70.83244010306215  104.47919969520332   69.33863432944813
H          74.48509770127615   75.24001376836912   63.85666931735333
H          73.26221550564078   76.51413604812755   63.81044400096542
H          76.25427922331728   77.07221146527463   63.73284550851677
H          74.95076437489445   78.21080031599266   63.38442892928512
H          61.47755068669326  108.07105542021692   70.12312632338944
H          62.56516470532679  109.33299491693353   70.68541726934859
H          64.18000396896311  107.43841538797869   71.37754636268366
H          63.18016792224498  106.37730483924044   70.36755148147301
H          72.98423535847789   85.34643327483872   61.36669075150365
H          74.39523351088417   86.22305756128071   60.75406004755128
H          73.59222689737865   83.43734497337496   59.80602400205650
H          74.73096825403370   83.73786522849659   61.10726637803423
H          58.05954204533836   85.82677399615514   70.87345987200564
H          59.60641453993161   85.16743668937895   71.39160503520486
H          51.40428461417153   96.11331824759492   72.55242787854806
H          52.97507570016633   95.74163755792384   73.24856283958266
H          50.23906027638829   96.03753738601338   70.54981623391265
H          50.41520099401517   96.50963717259495   68.86732431726173
H          53.96001315740327  101.74973619758529   59.45598696987395
H          53.41086377609613  100.29794655860233   60.30746159330260
H          49.57785047914229  100.60944606128253   59.97340386674162
H          49.77958539230379  100.33767846607849   58.23995188885036
H          62.08556249527655   97.48572167217978   57.68433270126822
H          60.69773228245581   96.59302032543742   58.30228328875786
H          61.24114513873617   96.35850928110347   61.99479595877924
H          61.34130486514135   95.75521213169831   60.34281933637048
H          55.23846031739931  104.81509655497607   68.31027553911908
H          54.51619504294982  103.92784431629032   66.96494009520404
H          56.69865515008468  101.65804449344687   71.54348460859457
H          55.07133046299687  102.32774640409264   71.44631657059402
H          61.97295104306985   96.23952594444897   65.69197558190193
H          61.87435191816927   94.93372134661543   66.87411166572581
H          63.68867931756671   95.83232976684624   68.08973873216385
H          65.44283529232297   95.73762048433301   68.09090266364619
H          60.48343472072513   84.08503823656913   73.05437039443692
H          60.24164005848699   84.71700967338086   74.68690957881346
H          75.47367097963158   92.11623828543038   64.45238310092196
H          73.93960399381997   92.94691898207611   64.71360999297090
H          74.26311794979803   95.58389130943398   66.70839761044978
H          74.17739482710824   95.07546652025970   65.02033875192721
H          59.80205492203051   76.86517291871399   65.11380556901500
H          60.15582085022484   78.07873938116781   66.33900920012424
H          61.86967012358509   79.41900081291500   66.60687991668179
H          63.37332772096156   79.38207626875149   67.54288628099900
H          68.73248903941263  104.36982540043211   67.17219640711917
H          70.47490648312417  104.38762823094676   66.91355843298976
H          71.21435422464455  102.40823537332129   70.65031238749565
H          70.56028689118318  103.73784560753161   71.60717504554721
H          73.93853888030729   75.67805019923772   66.14858378750249
H          75.50684628500274   76.42104928058740   65.87091529754943
H          75.64622943484875   75.74881821498765   61.72222159784787
H          76.10537517451235   77.40850479628017   61.34419652428502
H          62.54360026111502  108.30842505443557   72.97956728270421
H          61.01063553518542  108.97250234129469   72.42045130599844
H          63.54803413258828  107.80387428036258   68.41743907602250
H          64.50233061080782  108.93143866852532   69.39000554868160
H          73.36492564748667   86.11372154923029   58.44391811213979
H          72.45565750074823   87.05332400269148   59.62887465359702
H          75.09084664564986   84.75629796416058   58.25493583959314
H          76.27770549586315   84.84917340434075   59.56125835874902
H          65.87346206863130   98.72765793880478   60.99916084515727
H          64.54793290358246   98.58413819955938   62.15226289898168
H          66.27536549810240   99.94984214407516   63.11468788553169
H          67.52487398290434   98.75121043729627   62.80414543588093
H          64.92958784991058   96.45593639506295   61.06057940551483
H          65.28547531529043   96.31797548056591   62.77684828877806
H          59.87810358916297   87.35082720945667   70.27766226019796
H          60.40589890027377   87.43508855403005   71.97381799024161
H          51.41738339302194   93.92941974984922   71.34449678857685
H          51.42781285759329   93.77428745111867   73.10290855684983
H          51.18370162622472   98.20518108333057   71.28742538821696
H          49.74169219618729   98.42762336499911   70.27786112114697
H          55.29807588502521  101.50209802173487   61.42261583918876
H          54.22638466996414  102.87432557899959   61.71815001769873
H          51.49373700503649   99.17712085037681   60.49020333032779
H          50.28457206605294   98.32279253109711   59.51576798517339
H          60.50276962451207   99.15449898654157   56.66061422514797
H          60.28588370203929   97.50923771679585   56.01733631830066
H          59.08836024301754   95.53830003071924   61.19733542320662
H          59.08126672712529   96.69611102802800   59.85192375907708
H          56.73937398737095  104.83159686260750   66.41634652730771
H          57.48190623668121  103.87165540556613   67.71039657910526
H          55.16470055991228   99.84373668842741   71.64570133949876
H          54.24276208365693  100.40909705091144   70.23392206520498
H          61.04897002499584   94.81912594582589   63.94377647162361
H          61.15953156491469   93.38183882315941   64.98275217542356
H          63.43651209123271   93.45071396233210   68.02579724372967
H          64.63340011719541   93.84136901021967   69.28703867779626
H          60.92730458340424   82.47564943591809   74.97718563129737
H          59.18391381223371   82.41283089013332   75.24545608168346
H          73.77314594283717   90.41802551713117   64.59914782236176
H          74.70210684949996   90.32756873703747   66.10023108719962
H          76.16707082216708   96.55772252421917   64.53586480313524
H          74.67227333559026   97.39160389707132   64.97369510132349
H          60.22675593952638   75.13487871561908   67.02660941513813
H          58.66602965224902   75.95974710261638   66.82374890712619
H          63.20771530535131   79.00540586980340   64.51283912675193
H          63.63988569852361   80.50379032065088   65.34548857998703
H          68.55775311016758  102.22398199669570   65.89732226426297
H          69.29395243027039  103.51650269333189   64.92407100851851
H          68.94428104161665  101.35774322872898   70.55383080377072
H          69.51649140721879  101.58777572026274   72.21172883911858
H          74.22943562464501   78.63250635125773   65.45751702422848
H          74.33042058136415   78.00285581450342   67.10888016782616
H          74.18502343292596   76.74842993195851   60.00191922705799
H          73.25255527112121   76.32208859038730   61.45272575885640
H          60.44270008142530  106.94696455749796   73.49406962809239
H          60.33920056822463  106.59167921599249   71.75543677104578
H          66.12517991193086  107.02794400836638   69.87275219942541
H          66.03885745003994  107.54859683280908   68.17887544383844
H          70.99775278839263   85.67079470931854   58.22406210026703
H          71.77712594550906   84.19784035358650   58.82241268776707
H          55.58650930752604   88.46073532255917   70.62633958761809
H          55.90945974551704   88.86466779510580   72.31530296865587
H          54.35981800555575   90.59198400851419   70.34704823156115
H          53.63565413729224   89.48588075467880   71.50852472463437
H          50.29845311876478  101.49991187010892   66.66159001912392
H          50.97690242173484   99.95144961029402   66.17391342309807
H          51.47521099511481  101.79762370990524   64.60736652370026
H          52.37090349739847  102.65135198499050   65.87001511616063
H          53.83415177395079   95.52558853217570   57.85986302949168
H          54.43648838855951   96.96630300729113   58.68186700615479
H          56.16589007503670   95.58406450887446   57.39777685287245
H          55.44037602671249   96.18785351362753   55.91372921002526
H          59.44853934289587  100.12557957231282   62.83686718694040
H          58.65327345557792  101.07787352346573   61.58115125335819
H          57.12192655057239  102.06697111834168   63.26696830674306
H          58.81756541918337  102.35840380439211   63.64638422996476
H          55.22275196310817   96.85858660302536   66.78011481496300
H          55.32139362735538   98.50387955114574   66.17523714656672
H          57.69582701984177   98.05123113105527   65.45222778544985
H          56.46220914106243   97.13210564609651   64.58357763124167
H          68.52466987235481   93.16575757595687   66.88030615773518
H          67.39143388897666   92.64936175869174   65.63958396412420
H          68.80736023517878   90.53474240303269   65.37253387663617
H          69.53215824737917   92.05209736522698   64.85007803758802
H          57.79153879165942   78.71647906928192   72.61017440544521
H          57.92613189220968   80.24322621255314   71.76455365736192
H          57.33869837370305   78.52731015155842   70.17253407395094
H          58.97338533286546   79.09622419381294   69.82093020733970
H          73.21138043481056   97.93198299904364   66.87930753298741
H          73.64856858969318   98.87381187618035   68.30536775196910
H          71.42053770464359   99.48241296937755   67.61044039325404
H          72.50896715342066  100.85532881665443   67.39035725272247
H          67.88573161853479   80.02898450039093   63.68611068840003
H          67.91234528098796   80.15214777824495   65.44817848049634
H          69.83632577032489   78.43599010137666   63.79831811366627
H          70.14619234267984   80.09601029100877   64.29082251526636
H          65.36563885585102  102.64607913360911   74.74641340942664
H          66.48151119861186  103.99575747841598   74.91825366702976
H          64.32276502399183  104.82476691348550   75.56950137130046
H          64.70357198045311  105.53417148836598   74.00160644910152
H          70.59746950853021   80.25305788952357   60.21225126375155
H          69.94090533164078   79.68388971818828   61.74271799189826
H          69.04934102169334   81.86555117046640   61.44927273790038
H          70.30605329869537   82.05176970612312   62.66272159186472
H          65.16561883033742  102.22970402715420   70.15367385201320
H          66.80615598325213  102.12491728517379   69.52918869397034
H          76.67884099717406   82.97212506102998   57.94045460347913
H          75.14451359355138   82.23187910709564   58.46501654508651
H          64.43008656053179  100.87919858475151   68.09978634260713
H          65.37514117096171  100.03268184523462   69.33139482192064
H          66.66781861264022   97.27167997016029   64.49716350266394
H          65.11084209247559   98.12455478384010   64.54830946444540
H          56.77495276854729   90.70155976149076   70.03675696045340
H          57.34002598451221   90.69804825346593   71.72137263287836
H          55.30198749181119   91.95484923732198   72.19042584878680
H          54.68034897743158   90.80347408206730   73.37248019633407
H          52.05337260852746  101.83184800683111   68.31859270088795
H          52.84258797517512  100.30962689487276   67.84982590762773
H          54.02641873084117  100.82531927961078   65.97236539546589
H          53.07168537956165   99.88005941060872   64.80003404823486
H          53.63509604087915   98.31930489604170   56.65839514524934
H          52.87325187851387   96.82708686701390   56.07260062742460
H          56.50195557600852   97.97438530517306   58.15881865303903
H          55.99718939559461   98.49481819488429   56.54339578491214
H          56.52875889931970   99.84970700079299   61.99437753324980
H          57.33714223915762   98.88760124979656   63.25015889138078
H          56.88333070002476  100.44360220231091   65.00031990937786
H          58.64366728182150  100.23874606778865   65.16200361295161
H          57.36349762987019   98.84620471378359   67.68933682319381
H          56.96194471241702   97.30628892028929   68.45051472169710
H          57.04802110432293   95.10410282351906   65.68514689613382
H          57.90885234992925   95.94177838262225   66.97650389680329
H          66.65167991160337   90.76488687348721   66.94087013952048
H          67.97222609430847   90.96454711062123   68.11314125309225
H          70.18282106127363   90.50408938079696   67.38171978289536
H          70.69851440239900   92.17858290306367   67.11751179007140
H          60.24505823955123   78.48771543434688   72.68075831267532
H          60.42878731597603   79.92752756213994   71.65881965037460
H          58.27896779237872   76.54259030328070   71.34328893635936
H          59.92680467075029   77.07168706233824   70.90685927824710
H          74.63475089500375   99.39860419745061   65.45993458887024
H          74.92098642306470  100.46389285481729   66.84780840251078
H          72.55126077928935  100.48695445377851   64.95759557273902
H          71.68199935979976   98.94868186562503   65.14753649441808
H          67.47249740455989   77.54964468720782   63.92109782637017
H          67.25564271047975   77.80543239877122   65.67046657570498
H          69.83103194011997   79.32832154371924   66.71001839470141
H          69.98268746951845   77.66760880452338   66.09595002264656
H          66.25638283312452  104.45133458147946   72.44136022292471
H          65.25037550019064  103.00637488698813   72.31068750917434
H          63.28586475738603  103.68364090536888   72.93591740963588
H          62.81393863916030  103.20637610156655   74.57381453152915
H          72.09468677703219   80.34382437485857   62.86969821619640
H          72.78414655746501   80.67462773150412   61.27118994303499
H          71.87213324551826   82.84851574027648   60.90564931538620
H          70.59845994175204   82.64884702757981   59.69063669487005
H          66.05202634187263  103.27264242114805   67.43050877031432
H          64.41929925701261  103.38520635127756   68.08915566971287
H          66.78826712395455  101.22091443541815   66.93521257045511
H          67.30672984978293   99.94095443768136   68.03981450837843
H          67.72330210614354   96.49970821417148   62.28255348370642
H          67.35708723441131   96.66993380932308   60.56445579048182
H          78.90488757196195   80.45880257200274   60.40457666379048
H          77.72082460184608   79.21123503086648   60.01614937678126
H          77.52111103411681   81.34686858312831   62.17799720404548
H          76.50024667241013   79.89718107360484   62.19207254584751
H          58.26640969658951   88.55611919781960   72.43760044811901
H          54.08944346139252   93.71738490835146   71.93440610795527
H          52.45493442621122   98.70637748123407   69.14083236218606
H          53.15690727502407  100.32798278452367   62.65022401620978
H          52.71032362827984   99.44536000576430   58.29417749451034
H          58.50978258883184   98.60174599921341   58.10934722123479
H          58.96667874002030   97.42429682406235   62.70626525557024
H          56.03996237567873  102.65611264190494   65.42722896147610
H          57.04496535228622   99.59194259516129   69.91420897743929
H          59.34968356031066   94.16350365530859   66.25960586572950
H          65.12356689978716   92.50243971828644   66.72904170134937
H          59.81604621674752   81.98364253652676   72.47552544663435
H          72.88299348399006   91.59823743102805   67.14646263374561
H          60.62388275960659   76.91091607309072   68.82315867550317
H          76.95445391365580   96.93510562719436   66.80473930181930
H          65.38110384911359   78.78648051616129   66.43680678588882
H          71.47661813318334  102.43128695302849   65.67712416381173
H          72.03401466463535   76.96842514266794   66.44258204731997
H          67.70532090964436  103.58579922065036   71.00659990374643
H          74.14986417979520   79.09382207699538   60.89490232690137
H          62.53645969759758  105.49723153825406   72.02722586003823
H          64.34267852376215  105.58612172789239   68.02318591730607
H          70.32007206805511   86.19755738788182   60.45567375758216
H          77.50731943827368   82.67258309396044   60.17033474590330
H          78.14566296516138   78.14249847669400   62.24999363307925
H          79.52049113468928   78.11818316544813   61.15942628306325
H          67.56760771767847   99.49057035795586   65.43746975689001
H          66.65798089909082   94.25887540108009   62.30179028835232
H          66.30717853361476   94.41066013393076   60.57030522007652
H          80.62182636311427   79.90466232398660   62.37674638707897
H          79.18897039287037   80.22059643597355   63.35657933271466
H          68.72044629798884   94.62681944557691   60.27118276631164
H          68.33361672511739   93.21031308467202   60.96877372110026
H          80.90741849418841   78.34481464821650   65.65714169135371
N          58.62515857713090   88.40515395135297   71.50815049742788
N          53.21289590052260   93.27706632904805   72.19822686782449
N          51.49756540127373   98.95047865765511   69.36623885659114
N          53.72712386175201  101.16099080260594   62.76279083562003
N          52.00519411215403   98.75838196875706   58.50866883110747
N          58.78463288596030   98.13840829440406   57.25354919536257
N          58.79754766271978   97.52577659368561   61.70943510732159
N          56.78961433153604  102.77376297528882   66.11442190150353
N          56.04657455373966   99.56530630555349   69.77268354896070
N          59.66605695166707   94.72340296907213   65.47252424510104
N          65.38999329143824   92.93033483334236   67.61009129709031
N          59.83282978791304   81.63292554427143   73.42884920635630
N          72.78998415871101   91.15265974905637   66.24312894326607
N          59.74237629777132   76.60219302505952   68.43524403107953
N          76.16157525434500   97.43087324481931   66.41829482795546
N          65.02018052453519   78.93945227995121   65.49783984050919
N          70.56671188097846  102.00490175393884   65.59791405788789
N          72.47128449510141   77.83095901214598   66.15511324206105
N          68.02167311011388  102.87364028394013   71.65915218969640
N          73.53235001924462   78.33600726176897   61.18471378986202
N          61.93551743839631  105.75214578060331   72.79368659157079
N          65.16132159208908  105.71175296218966   68.61408337339304
N          70.61564668293143   85.24960553437727   60.20566852781624
N          76.64688571055119   82.22430366151248   59.86755242944304
N          66.63325781520825   99.10464671578859   65.49758421641306
N          68.36121377562772   94.21362704903132   61.12746187768307
O          58.49712936974989   88.97942261876369   69.33959920603361
O          52.10736061096423   91.37633332843785   72.65772947713407
O          49.84918605124455  100.46863292214420   69.15547218756618
O          54.82496151079901  102.53204335928997   64.15900353252590
O          51.22211596516670   96.68218863097721   58.12661385735642
O          58.08791466030369   96.76338604545059   55.59872403632677
O          57.72547763263044   98.64133581854750   60.06204688045145
O          58.86781598238078  102.17418887675528   66.76760682019071
O          54.31950275436611   98.72336242683814   68.59726921506044
O          59.37780860846367   96.65160601918674   64.33747568015831
O          66.74867936527599   92.76718561156768   69.40852545696065
O          71.43778034558524   90.06099551187357   64.80356484399965
O          59.76409243708805   79.85703598132417   74.80113821791777
O          57.64477151643675   75.93040457049321   68.92710525469126
O          76.63846206024206   99.00847379643453   67.91838758575919
O          69.41135063209914  100.08063251221242   65.41479985372560
O          65.37878281321063   78.98002219918725   63.27910195515118
O          72.22922247025437   79.99820071838784   65.60380920244148
O          67.54430786390635  101.68411080955356   73.51010885351786
O          61.43767772885350  105.41214433314099   74.96576629429545
O          71.50095755486599   77.75557419479661   61.97359104222368
O          69.60548195733240   84.50185444878342   62.04964203600532
O          66.81279856877053  104.74787239841696   69.80239095999528
O          64.78551227743074   98.79903438747473   66.73909387580142
O          75.06490352429456   80.66190562608317   60.25536600969018
O          80.69160094932981   79.01165015739817   64.93782994870539
O          80.16873390763854   77.23893758624757   63.68836461309968
C          36.59176349042234   95.05785603469901   73.28792163665386
C          35.14844033033042   94.56097537294357   73.38411467750313
C          45.27576626668220   91.96741498332727   69.45358713497897
C          44.88880820938973   91.12133356294166   70.66682096563268
C          46.52625751190129   94.97797061708026   80.62915566258292
C          47.96410229307057   94.82185771938617   80.13869815352312
C          46.39841701775474   83.61414919109215   79.57718941429161
C          45.83081524214861   82.89502273268737   80.80526814478210
C          43.04089243247816   74.90601547048017   72.87927446154335
C          41.60395526134835   74.98591153460343   72.36484857744072
C          37.07904485115454  101.88448942780268   80.80846835924125
C          36.66533424794402  100.59470760545331   80.09732116022168
C          50.56407906405312   74.74141009130857   76.40293701839103
C          50.18282311931728   76.17816940786874   76.76206733568304
C          36.97449851265848   96.64417659510464   66.26196408537868
C          35.99379839581238   96.34160819468433   65.12749669965747
C          41.92709425467096   83.41864879136291   74.34857731331125
C          42.97990140274288   84.44728584241851   73.93525729066451
C          40.47891093918854   86.54383211411540   60.32848992301861
C          39.44621203072361   87.30845102522393   59.49678851418549
C          42.53924951678978   95.45356278729581   77.83416039932897
C          43.55530954009460   96.27266467944010   77.03930758401397
C          45.01985851769143   89.33723331133365   51.47462458474634
C          44.73215388293722   89.16049932717159   52.96682986910670
C          38.52007101713133  102.33229237055014   80.54964532263598
C          37.65471749348406   94.05298743584783   73.73532896903416
C          34.83083981727096   93.29726967200959   72.58400069190320
C          45.04439633465437   91.30181611187508   68.09162865141090
C          45.67598693617928   89.82209095151049   70.82520541699826
C          46.03702956574538   93.92663838578099   81.63035160680573
C          49.03296989558926   94.90868930894031   81.22623989355628
C          46.62325666090074   85.11419523680624   79.75982815290523
C          46.86518279993557   82.33089955719964   81.78526010742074
C          43.20375183613083   73.84616636260763   73.96799255666222
C          41.34556361553786   76.18049893158030   71.44285153427641
C          36.64661230771528  100.71927428327423   78.57314003715868
C          51.48007411067320   74.60319650850840   75.18581642512514
C          51.36101554202141   77.14392020394492   76.86216209769029
C          37.08022529247735   98.13021709148745   66.60284863687119
C          36.33720679280416   96.99529562838234   63.78539188004662
C          42.00471808896347   82.10742131145692   73.56698343663449
C          42.71861217772145   85.11624384821754   72.58402249624423
C          39.94674563374426   85.67612323554866   61.47328417280385
C          38.28795367977254   86.48987623022633   58.92158055148984
C          43.10337951218501   94.86833833605566   79.12701713324861
C          44.83721498839429   95.53301189336750   76.63157001673123
C          44.30633485986926   88.36944502845293   50.52783913467319
C          43.24873022351058   89.30388240741540   53.31368516884233
C          39.06785871262509   87.58671327195074   69.81953073262535
C          37.89249993279711   87.29421715949172   70.75549269307763
C          38.64593653371228   88.06443998088362   68.42922578223985
C          39.59745641919668  101.39485194329446   81.09627448672985
C          37.46810483352650   93.55160891700636   75.16802040805101
C          34.86353341558326   93.49613093144607   71.06857003029049
C          43.69336251827799   90.60428069311583   67.95257018522260
C          45.04580716749587   88.92501925020655   71.88359501892508
C          46.39381162167592   92.47582974547150   81.29075807583308
C          50.41841698091347   94.61003498336989   80.65548587729289
C          47.72963511147226   85.44315002093170   80.76337922947260
C          47.73756749183620   81.22325555064184   81.19961321737162
C          44.61730198631900   73.79360981094810   74.54347874691967
C          42.03067065988741   76.10729158344074   70.08121560618861
C          36.69913008742704   99.35705489148026   77.89481247415675
C          51.01365751203527   75.35564138028164   73.93864969546682
C          50.91481445748929   78.54700321065147   77.29247405132172
C          35.84459387322867   98.65631656523257   67.33985599800641
C          37.71872618444826   96.59952338989636   63.25773449815495
C          43.27687486450960   81.31620512942425   73.86254967171240
C          41.60074308674018   86.15485805215958   72.62863071312697
C          38.90881769751355   86.33862763871537   62.37038932028347
C          38.69675925036101   85.21548825312675   58.20032044271620
C          42.11732038235581   93.91405678547609   79.81746832469159
C          44.64480420481119   94.11507997346017   76.10207825906500
C          44.80370919834532   86.92191562177372   50.59271883410406
C          38.64423344956258   96.86956992235133   80.31058982181997
C          38.60712295340912   95.59169076625939   79.47531295347233
C          37.85559474701200   92.85413043140221   68.11270619554989
C          39.16443645296075   92.48286891647413   67.42221578253093
C          46.47758491781591   89.12497321050982   76.18849223057309
C          46.69068989268747   89.61767809503883   77.61702546076600
C          50.92466579106931   90.30923217762206   81.27998266508069
C          50.69668254771028   88.82867219948969   80.98706207778116
C          47.01558316899931   77.06782122612982   78.92299293417621
C          46.31660296380989   76.06343313263699   78.00531139388050
C          46.28600206369669   75.11489169948449   70.45312879320994
C          47.69473452652754   75.34761626918807   70.98924153639682
C          35.27210092893370   98.75187964550493   73.49740917269690
C          35.23733717752937   99.27702049756620   72.06479080126262
C          47.91193849980161   78.66440953623380   73.74033255940839
C          46.61433262736510   79.06344122745938   73.04093843918626
C          38.87056076086430   92.39603781062183   62.47209508208446
C          38.39235950151029   90.96871482414309   62.21535914175180
C          40.48864963845897   89.06214987263905   76.50120938589397
C          41.09274859135534   89.86835532256538   77.65202687955011
C          40.50993762000404   84.48600817144346   54.05898639760912
C          41.26476548721788   85.11008955744434   52.88736024568247
C          43.01279973638807   89.56114536251827   54.80216158093323
C          41.76642157190572   92.21855180325994   73.43354118419150
C          40.64845818487542   91.93955496834249   72.43426270860279
C          37.27007285396333   88.56663030119073   71.32972515671653
C          39.85487000988432   97.76362310239327   80.01523663985616
C          38.43958415915755   95.85986819389133   77.98301628879982
C          38.01011543422072   94.03993861770154   69.07155491156547
C          40.26056347580226   92.09705662092549   68.41159336173155
C          45.10955838868288   89.50917392433963   75.61729317736295
C          46.45010290774734   91.12288340489160   77.76344199134810
C          51.55155838224128   91.05712465860621   80.10313836584471
C          49.62675988061567   88.60261660089769   79.91094976071328
C          46.29789930902570   78.41359673628722   79.06981098626100
C          46.17209414147349   76.60116105497836   76.57439043314901
C          45.77459607474682   76.29728472576637   69.62767445051766
C          48.21797873827927   74.11328863765399   71.73590190785386
C          36.65401297791228   98.87642007322023   74.14466918128734
C          36.12489719864323   98.48781948271572   71.10257174967408
C          48.48657516587620   79.76655999920582   74.63819645723218
C          45.41600234512369   79.23797469601324   73.97998229659568
C          38.39186371136036   92.93313067364302   63.82177867896158
C          38.82019171229057   89.98722350762394   63.30662130651406
C          41.54240499686220   88.58804786033522   75.50502101151778
C          41.58215894242201   91.24909184151554   77.20726706733892
C          41.18532957934691   84.80610292547692   55.39626814302321
C          42.72194881392307   84.65274042609143   52.79222957628357
C          42.81523283397669   93.21539993415273   72.92804494513041
C          39.65972626324898   90.94356305881861   73.03907454597578
C          38.06384043398251   86.93778450263142   67.57994742036466
C          43.74416088493258   87.47925157021851   58.61202431960259
C          43.15234116610882   86.79607365146539   57.37562599836235
C          39.82821444400512   98.95678715058835   80.95552251468972
C          38.44903659215822   94.59460971802619   77.15560315971950
C          36.66032454173373   94.38917103980440   69.66191471708609
C          41.34529209725225   91.25670367014324   67.75953034442369
C          44.91502781595882   88.77976989898073   74.30746924960866
C          46.97722000614305   91.60401549671850   79.09545196905479
C          51.69228366032989   92.52482197333904   80.45921771216787
C          49.25667295819924   87.14503894090363   79.90704164454462
C          47.28764480770178   79.46148161574770   79.55118434946412
C          46.11421243444121   75.47466879364815   75.55437181577753
C          44.33198274831555   76.04357430162861   69.23232194258702
C          49.63750826177554   74.38307891283496   72.17895760840089
C          36.56925444039807   98.49519759197631   75.60945624725090
C          36.08643207062376   99.12048283378142   69.72233930513829
C          49.80104645074638   79.30080004931150   75.23109070369244
C          44.13614507501570   79.07381139973013   73.17580919474277
C          38.64625672012332   94.42131399914132   63.94505725157066
C          38.30542417964356   88.60547676868674   62.95635403655362
C          40.96521005531857   87.75575221614574   74.37158218758654
C          42.25726582578127   91.98822084598206   78.34621066006126
C          40.28103717104435   84.43963048543569   56.54912024401059
C          43.31440405256849   85.20578734984375   51.50164889936003
C          43.94356341982959   93.21043036647882   73.93532381547159
C          44.48205024847903   86.50704659280727   59.53075882373636
C          38.56524765563003   90.51957105988014   72.07537964547251
C          42.50005974584344   87.85564514082539   56.50974640221946
C          37.75125220540395   87.39583382998372   66.15994645241318
C          45.82083950273139   86.04121056023914   58.94850960003168
C          46.49596406792521   85.05780549668121   59.88087297063118
H          36.94933966650696  101.74215437924801   81.88315415523539
H          36.40957680140691  102.69055101304399   80.49755127739512
H          36.80723650606453   95.34642844601200   72.25766723606237
H          36.67147454886293   95.95197618279839   73.90764331543424
H          34.48948329391733   95.36061572052505   73.03554421835582
H          34.90180960298711   94.38391621027017   74.43243439551165
H          44.69494364345888   92.89007682004383   69.50314224205287
H          46.32857313093453   92.24339325701619   69.52291182054218
H          45.04274425336661   91.73428643355709   71.55609593549273
H          43.82481144609248   90.88262183470667   70.61520168738670
H          46.40404735242689   95.96156543050509   81.08868496604049
H          45.88149681362305   94.94547486231080   79.75022051918795
H          48.14883021206330   95.61249772475138   79.40668667179938
H          48.05553591942469   93.87338367261226   79.61474353620250
H          45.69770601475498   83.48550844328834   78.74982146167936
H          47.33315254510886   83.14747482473453   79.27255076466312
H          45.20618079329967   82.06908731677160   80.45627183151224
H          45.17912583177739   83.58078815714578   81.35007384279997
H          43.69875850206261   74.65378142414255   72.04877434038744
H          43.34170590142665   75.88233188608066   73.26118302619518
H          40.92824445656397   75.07057962185419   73.22032601577085
H          41.35335377499477   74.06017762479512   71.84104691447661
H          37.34295778274772   99.79603023593307   80.39448522626367
H          35.66810903970087  100.31376276781580   80.44278500678374
H          49.64075980335580   74.18770569303258   76.22179052610569
H          51.06576758092154   74.27536093356451   77.25469493492804
H          49.66398369556055   76.15663316023236   77.72252509558331
H          49.48215051128862   76.55196160281191   76.01520365089132
H          37.96192499095697   96.26709943631155   65.99389099192130
H          36.64690659041467   96.09904675588173   67.14832323137061
H          35.95791757809292   95.25787679859016   64.99515407899028
H          34.99004038047286   96.66033254261779   65.41361139723244
H          42.05232695797010   83.19754850271347   75.41109551895013
H          40.93318091751091   83.84866509789347   74.22128037994285
H          43.95591003260833   83.96279025339688   73.90283937624383
H          43.04239613601202   85.22231057005068   74.69905026185688
H          41.06565343825426   85.89941388173617   59.66891681285467
H          41.16095582659828   87.28576555141979   60.74889554091511
H          39.01316744537139   88.10027030964727   60.10933029462488
H          39.98692641631670   87.78526278225604   58.67491566527203
H          42.16519401557481   94.64587026521788   77.20526433201398
H          41.68681518649448   96.09538859404246   78.05819544684752
H          43.05595452835521   96.64238567174181   76.14171388397261
H          43.84941894433643   97.14727949940759   77.62569004939877
H          46.09584010199096   89.24233493289742   51.31466314209950
H          44.73618696079279   90.35483178047681   51.19132117262239
H          45.10302987643904   88.19559190914671   53.30725028288998
H          45.29838651059646   89.92479611967234   53.50530386832614
H          38.67950096088656  102.47558719536683   79.47951000241598
H          38.66127191283728  103.30319219623983   81.02947526020399
H          37.66051419628820   93.19606833541138   73.06147687170024
H          38.62981777101948   94.53947187024725   73.66779642161433
H          33.82400295122758   92.97111317359987   72.85369560517243
H          35.51828865460119   92.49290327443877   72.84881899738771
H          45.13869843713452   92.06915817856500   67.31962430411416
H          45.81898901125791   90.55554293514892   67.90781154539661
H          46.70971698773642   90.03956766782890   71.09343231099491
H          45.69533627409977   89.26209307806887   69.89074485446753
H          44.95137809388049   94.01899628779752   81.70690395556062
H          46.45212001085702   94.13595933204616   82.61760492896876
H          49.03682786634898   95.90981331600747   81.66147040649506
H          48.82214899522717   94.19761832244758   82.02558146614830
H          46.90932648342957   85.53642307350945   78.79306026669556
H          45.69078922930777   85.59292064344442   80.06706567752863
H          46.32753771991225   81.92718863910042   82.64770514834504
H          47.52558042050767   83.11485333437039   82.15286796564261
H          42.96793850838510   72.86427512512579   73.55285894347118
H          42.49611832690172   74.03420468703644   74.78067922239487
H          41.66615186695542   77.09636768700869   71.94133823800306
H          40.27008736747164   76.25455855806999   71.27134607131673
H          35.74830982942046  101.25197330810796   78.25590270249373
H          37.50302124318830  101.29744473610458   78.22479907337072
H          52.47917392919486   74.96411413115298   75.43855096112674
H          51.56883234781069   73.54345527752797   74.93809108672902
H          51.84915651515529   77.22920080820938   75.89250096265435
H          52.09184204196629   76.77552922614487   77.58451097524491
H          37.95065904405262   98.29195051848552   67.24304092430586
H          37.23204054701728   98.70794687504721   65.69003217917412
H          36.29281523807563   98.08127597730760   63.86796182832477
H          35.58287555307122   96.69569337797405   63.05262344022405
H          41.94385301946762   82.30001814412054   72.49564879586144
H          41.14701972820585   81.48530060791285   73.82592796918887
H          42.46702406605672   84.36881247384854   71.83103653601904
H          43.63205404925033   85.62742069906575   72.27270818789079
H          39.50687173210046   84.75718754830066   61.08496196889772
H          40.80294329454257   85.39221644994933   62.08822173824323
H          37.73039404588017   87.12659925280124   58.23058713339411
H          37.60384944026318   86.20491371675263   59.72126089693478
H          44.00338522731101   94.29892244531055   78.89823938700469
H          43.37223113876332   95.66663422284427   79.82134054282695
H          45.32012557634192   96.12133660328399   75.85103660486701
H          45.52131244795598   95.47553282738883   77.48039929752002
H          43.22931103111507   88.38722275565320   50.70222074756715
H          44.47759345102112   88.72308077698540   49.50960403584519
H          42.70323151158279   88.40702663068579   53.01573071005319
H          42.83374766333818   90.15065818887032   52.76182290218652
H          39.66714210422225   86.68023821674679   69.70603599303128
H          39.70109875633673   88.34582889386095   70.28550370540979
H          38.24063897954749   86.68656155696799   71.59408306975473
H          37.12502430798373   86.73065345411912   70.22627715383078
H          39.51691299709556   88.48051194203853   67.91700207017678
H          37.91326634837582   88.86778601720633   68.51998952453710
H          40.56292076056974  101.91897075447757   81.08441475562577
H          39.37974030503297  101.11103143578396   82.12880242412761
H          36.49507092155607   93.05953134361401   75.27323335016392
H          38.24390930480075   92.82195851779154   75.41762131809719
H          34.41586782635256   94.45511494114763   70.79475699262646
H          34.28195356192612   92.69627268431221   70.59209811743455
H          43.55151375993662   90.24665495196074   66.92800945998792
H          43.66639862394715   89.72392484212521   68.60712939189179
H          45.56245308928282   87.96104999983032   71.91782287804453
H          43.99613253620538   88.72993165426600   71.62297787421511
H          47.47049051533186   92.32147436355528   81.39361214398510
H          45.88269136977132   91.82017923789562   82.00617322107026
H          51.19552900952208   94.82546929252823   81.39442536518681
H          50.60320334892022   95.24184752260376   79.77668668310348
H          48.59680082595369   84.80720565776051   80.57632882905116
H          47.40223239943258   85.28807965302434   81.79035363015159
H          48.39923769327517   80.83737590963351   81.98486945830736
H          48.36326462992946   81.59511198683639   80.38702371635947
H          44.74264084363855   72.87369149324633   75.13023286689008
H          45.36235639438079   73.79048719865324   73.74483106205547
H          41.88078324214266   75.12941248358473   69.61224567732195
H          41.58695426374779   76.86299941840899   69.41925511509960
H          37.58495447795285   98.80787683470157   78.23519454513104
H          35.81899136197739   98.75444623044271   78.14188876703012
H          50.93658762700081   76.42873316911454   74.13613999411309
H          51.75324201048790   75.19713927933461   73.14943527081425
H          51.75709926779682   79.23617934664799   77.16169085717809
H          50.61474897803021   78.55502406093100   78.34017177441035
H          34.93118598869931   98.28847605135084   66.86529954652379
H          35.82315106702713   99.74868714877566   67.32920892876265
H          37.87851769047853   97.04530194548515   62.26965394391595
H          38.50949021761213   96.94039590917106   63.92716914556970
H          43.36465419711228   81.15913734364004   74.94471702471193
H          44.15983586469716   81.87436144836010   73.53032677614694
H          40.63621052227516   85.70427366603568   72.87860664175106
H          41.50101969131857   86.62877776696139   71.64347183970007
H          37.93351870663507   86.39358450538016   61.87914703228719
H          38.77971741583676   85.74298062056945   63.28348728849519
H          37.79951432714807   84.71615892815154   57.81180065881205
H          39.18883477907124   84.52115089831752   58.88859945029532
H          42.64674509927703   93.34537288904427   80.58863056394652
H          41.30910580314504   94.46953564365839   80.29288546027411
H          44.23394439511004   93.46599432234711   76.88271943916016
H          45.61148516439223   93.70075293276498   75.80042636239267
H          44.49799704291275   86.39526373844433   49.68572908016982
H          45.89495696369831   86.90331361265912   50.64951678464305
H          37.72468681676523   97.43365980683333   80.13632127586283
H          38.67292629401975   96.60942160235869   81.37065111121736
H          37.77099720665502   94.97797010327939   79.81946732923950
H          39.51921670190981   95.01855762621116   79.63500875945044
H          37.49527319716064   91.99090067335148   68.67423617279425
H          37.10961956238041   93.10329229689185   67.35386526077656
H          38.98726952230547   91.61737980574208   66.77921892225808
H          39.49931235080227   93.31485542898290   66.79843645878577
H          46.56735807565513   88.03568944829269   76.17861347627988
H          47.25988134362524   89.52877451069605   75.54561765028120
H          46.02136697614137   89.08372893182768   78.29593892624263
H          47.72029017004549   89.39193133842447   77.89874692310690
H          51.57307608684898   90.40526203949061   82.15384684641263
H          49.96636667934963   90.77204543974878   81.52269074273147
H          51.62624048490031   88.36598944184783   80.65434061030459
H          50.38141694124989   88.33238096374214   81.90988013282247
H          48.01042337107094   77.26983144477445   78.52186739563635
H          47.14057594526435   76.61969291708016   79.91145606611612
H          46.92103140407711   75.15353910136695   77.98391857610004
H          45.33662985371078   75.80199088475918   78.40990172573281
H          46.27102188798946   74.21596785028947   69.83209682002138
H          45.61653517408890   74.95023611268616   71.29907677845713
H          48.36965514562714   75.58947667289520   70.16598223125096
H          47.68435914927861   76.19877077672784   71.67313863126208
H          34.96083180574155   97.70681071549767   73.51742052340005
H          34.55527743574128   99.32163079215790   74.09422400842773
H          34.20790473640228   99.23765111416313   71.70121373866485
H          35.54819939288448  100.32411830873995   72.04677894958789
H          47.74019528503253   77.75874463618275   74.32522278785532
H          48.65675036076097   78.41660836113982   72.97869929198650
H          46.76614551289856   79.98748458874529   72.48273042862735
H          46.35908156461443   78.27865563148086   72.32502967192866
H          38.50634805702494   93.03877223602562   61.66572536579853
H          39.96087731197255   92.42678258843161   62.45741303526870
H          37.30331837052935   90.94866926055532   62.14117451479881
H          38.79487801875523   90.62824931781473   61.25767267765747
H          39.74137897533471   89.66482274720691   75.98343386276296
H          39.97637001482551   88.18704115759233   76.90531540319643
H          41.92615814536934   89.31533081839781   78.09198111603064
H          40.33529428784632   90.00340678758448   78.42636634570941
H          40.44682045094707   83.40327513716312   53.93687025071414
H          39.49260089292189   84.88479725989107   54.07216263839963
H          40.76512134667031   84.84791203587353   51.95213608734093
H          41.23688701066122   86.19848068204850   52.98477501679994
H          42.27212889757996   91.27485582540318   73.65832652514199
H          41.33169050628131   92.59344126676615   74.36358497237740
H          41.96896051131865   89.81924543905809   54.98420660702442
H          43.64036875849401   90.40110072284669   55.12344819373325
H          41.06994394128430   91.52891081145012   71.51456723918335
H          40.12845563665353   92.86242670795262   72.17650952846196
H          36.36992788707496   88.31171998955682   71.90049793405873
H          36.99479394477825   89.26663654010358   70.53836383157545
H          39.85804588645851   98.08693326844768   78.97415412739834
H          40.76903098924712   97.19940014647038   80.21059490542976
H          39.26803527290876   96.45633616054272   77.59637468651607
H          37.51412001629799   96.40232403302801   77.79484700180498
H          38.69069170672408   93.76705009264560   69.87686070287748
H          38.40576989498156   94.90284415818032   68.53421084122327
H          39.81545117881348   91.47560788629706   69.19489387515981
H          40.70393770627651   92.97180190989954   68.88327913787182
H          45.04900822069780   90.58400039087658   75.45750794431230
H          44.33704334127671   89.19981626230710   76.32192315504007
H          45.38890219312120   91.34534459677305   77.68455989116954
H          46.99766625275803   91.64238755559631   76.97634906699589
H          50.91690372049882   90.95935772799871   79.22482764321630
H          52.54172264545719   90.66332130638824   79.88150488442587
H          50.02305187997644   88.86298288161703   78.92969099238968
H          48.75921035116668   89.22841868137171   80.11768634077025
H          45.44105417747922   78.33414364125703   79.73886076103850
H          45.94962809006832   78.75674340503430   78.09385221634450
H          45.27511361764419   77.21658612551020   76.49517702469920
H          47.04675735989650   77.21158681300111   76.34670608163125
H          46.37550229341785   76.41253195679424   68.72743032042337
H          45.83424011115212   77.22146982274396   70.20098649757736
H          47.58686068777236   73.90838132753345   72.60014170008633
H          48.21182473767923   73.24999975154616   71.06855218760043
H          37.36105917658843   98.20395659133789   73.65750678697592
H          37.01214396961679   99.89915383290420   74.05091017429517
H          35.80540854740263   97.44789391879637   71.04715087385885
H          37.16163622018975   98.51575732969225   71.44472004919072
H          48.68349652103305   80.65168906977776   74.02855175312237
H          47.78530374932424   80.04057657895493   75.42465053768625
H          45.46225045864368   80.18440111354506   74.51215481143987
H          45.42755331903857   78.42593230530593   74.70766051601787
H          37.32292030052940   92.74084976325904   63.93672672888251
H          38.92560884369245   92.43193738756035   64.62665900414912
H          39.90299887287777   89.97149250705462   63.41023115885807
H          38.37435601889314   90.26964529359883   64.26005848723874
H          42.05643488607031   89.44170751664035   75.05752772258543
H          42.29290420676248   87.98239853330627   76.01721894093365
H          42.32212885906073   91.13831047467880   76.41219239728687
H          40.73928801870507   91.83466646392985   76.84194921996038
H          41.42177980354676   85.86830143090700   55.42731872546121
H          42.10631957044932   84.22960973569566   55.48368889980284
H          42.75367565256242   83.56213627557304   52.75519462790847
H          43.29576903598227   85.00713957382180   53.64555309752728
H          43.17828225613049   92.90817963412078   71.94914488539281
H          42.38815727214501   94.21100561761324   72.83981043608205
H          39.17861292947089   91.39732491513307   73.90902466424582
H          40.19376652207854   90.05704855327861   73.37646106944459
H          38.77207797574439   86.10933248126926   67.52849780129839
H          37.14550799661983   86.55176158305537   68.02528799040488
H          42.93140031254057   87.93368558900924   59.17892759984586
H          44.42142697712546   88.27710992252057   58.30399359417474
H          43.92846416126577   86.29199598030550   56.80454845691965
H          42.40504696347889   86.06806340991427   57.69289423764491
H          39.69562038863850  100.22777914253713   79.34480770069096
H          37.03176905091448   95.45028092177773   75.98875806231726
H          36.78265142459463   92.67715203456905   70.74696872741664
H          42.71239190630001   92.19630242271359   68.95388242654286
H          45.20771130080822   90.51647719555520   73.28562301006477
H          45.07260787031060   92.02674580031207   79.68188366143642
H          49.73859199488305   92.72583644257162   79.94703233669054
H          47.65345259446502   87.53543452735475   81.08583428702403
H          46.09128578782219   79.91355485908444   81.14058934892837
H          44.12517300089581   75.28301141792493   75.93846860990020
H          43.75242919988338   76.86456491683570   71.00921510710961
H          37.05872343963367  100.42081369231180   76.11719088504714
H          48.92523179560627   74.99613801531950   73.98616444919632
H          35.82528114167388   97.26305246205284   68.92227430724657
H          48.96393778886981   79.27105301194139   77.09727621959436
H          37.11480902411378   94.69470296515854   62.64165863453225
H          42.39539093693389   79.89955456065667   72.58844309355798
H          40.23752656568146   87.94906066711916   62.76385828259118
H          42.88860629176256   87.26956410535134   73.85654868926750
H          39.79328555232163   86.41018576961366   56.82842518173572
H          40.65168842601500   93.23815596183982   78.43565953866123
H          43.03011722443519   94.74013702860449   74.91331740716227
H          44.48274357682751   86.42893176778635   52.63196332974256
H          44.20980956291049   87.95776294116800   55.43378087838689
H          44.66805176357956   87.01930700618604   60.47760429016611
H          43.84751321663177   85.63748337068746   59.71880097759545
H          38.67636509209354   88.64896896887811   72.88354585150996
H          36.97540520101600   88.17729664394999   66.19966936141647
H          38.64367858520133   87.84457397025224   65.70829871225607
H          45.65746311278737   85.54735856982178   57.99070005723463
H          46.48091716831834   86.89526096453135   58.81965655731663
H          36.66347284801877   85.71380375757981   65.82977502960406
H          36.92322514534350   86.61390028396728   64.48588043901104
H          47.96174583179322   84.96375973751876   61.15039604987179
N          39.71539006991331  100.16164032015847   80.34992875424047
N          37.58148134475070   94.61305258633273   76.13945615861488
N          36.20023254096309   93.47739101190403   70.52298047254739
N          42.57467480911630   91.46911984622956   68.26448620782318
N          45.11321199383758   89.50968064152615   73.20865514011983
N          46.05217482544434   92.07017331500603   79.94604835962471
N          50.55272503977753   93.21586030672881   80.29653310161200
N          48.18306502099615   86.81115290755416   80.62839663980317
N          46.94423555057506   80.13901123747124   80.65414060315391
N          44.89575371987198   74.93741365581263   75.38829260932059
N          43.45385237857350   76.34017251358574   70.19619931075781
N          36.75730136777969   99.51449293993754   76.45676408188748
N          49.75235602163206   74.88920598784171   73.41271307574668
N          35.84885317052838   98.25852077258097   68.72730687800325
N          49.77345965671136   79.02583455055402   76.53737219964573
N          37.83752974094725   95.16491861287309   63.16471226893782
N          43.22388247953712   80.04547009523068   73.17502569353613
N          39.26207109280286   87.69221346617336   62.72810286007806
N          41.90158225092051   87.14798237396367   73.63372009793608
N          39.61111823694526   85.45419092485014   57.10128243935432
N          41.53680657361160   92.98066037117998   78.87641295195547
N          43.78135931527565   94.06968593184062   74.94471891779111
N          44.22742719667349   86.17317743741300   51.68931358366299
N          43.32866184370189   88.41913110846350   55.63058475932647
N          38.21536125738539   89.23654959437354   72.19367313368153
N          37.36280131864904   86.25977791916114   65.33125342061511
O          39.87508448586282   98.83766799385572   82.16312839765435
O          39.18962728728993   93.63951320765686   77.38356618034851
O          36.03902739469076   95.40465428657834   69.35849537038773
O          41.12289571323505   90.43755557691846   66.88306517241296
O          44.63554483749601   87.58089284642041   74.26063245852094
O          48.17361129662846   91.56925096914300   79.37139805787525
O          52.72616756097958   93.01757230287639   80.87674134717621
O          49.92657951764221   86.29188767255459   79.32103752444962
O          48.33764325780997   79.65903260480069   78.95740597762307
O          47.10323455936459   75.09039964774738   74.94985190960844
O          44.00917825399449   75.55479524957798   68.15578229562669
O          50.59917446801318   74.21359102627190   71.43614796868673
O          36.30936428533678   97.35793979887715   75.97912996079654
O          36.24399485059963  100.32433675918554   69.55090726346720
O          50.80887823529869   79.15668386969941   74.53761491370348
O          43.95361402133739   78.04190361323163   72.53253277986660
O          39.51086632531555   94.89677305741348   64.65947555016393
O          37.11605682137907   88.35020812932306   62.86878386519853
O          39.76740011746545   87.66472158541208   74.13312446759937
O          43.38327744027818   91.69162376353754   78.74117279832505
O          40.14717176342759   83.28264209120445   56.94611240399928
O          42.95459773676167   84.80984857791934   50.40805842456389
O          44.87969406622994   92.41521697911534   73.88427820512410
O          38.04454042514206   91.29504215665487   71.27947913761599
O          41.32489922292095   88.18570069925376   56.66974121893929
O          47.47300315924981   85.60793318273481   60.56206239422068
O          46.14132392008268   83.90535444000558   59.99690068816848
C          67.45645134812749   92.02832937087939   84.12509103461085
C          66.44728943295485   93.02068805250276   83.54442225258839
C          67.29799316838833   94.66711987571045   72.63866752873462
C          66.13900353323199   93.66724169911696   72.62535560248267
C          60.15451010381104   85.12390914630927   78.99541369333009
C          60.50541692818558   85.08660623537995   77.50966225529812
C          58.20173281340164   76.73148918877034   74.64982636528651
C          56.73943033039560   76.42035368173447   74.97211882386452
C          50.66492303423151   72.77919763941652   67.82126738916607
C          51.64060638662421   72.66577395880900   66.64836174323442
C          75.18802482747309   95.06737376235975   75.51260441346986
C          75.14779060707045   96.44525311142407   74.85561054748158
C          53.52505931022606   81.19046393547895   69.37288531484789
C          55.00111681944759   81.26583966369714   69.75733351590497
C          69.87854506712942   96.77572520128948   67.21306334404299
C          70.52505986333357   96.27032842659202   65.91750985886506
C          60.14780364874333   79.37737939209718   63.05212372822675
C          58.98285424611780   78.87990576605492   62.19497958728558
C          68.83970050095957   87.55423700313057   65.38813479883228
C          67.89314177620695   87.51237494349910   66.58851044851345
C          57.51264356085044   72.80660686753045   67.32334779840038
C          57.34472412132294   72.11759840421810   65.97018324693433
C          69.08840989596546   78.06140181790660   71.39246091519688
C          70.04666236117286   77.52850962526679   72.46098698997076
C          74.70669290693895   93.94570015808134   74.59574000593069
C          68.52539201593989   92.68936248105487   84.99404585631102
C          65.13571458145134   92.34863975041883   83.13667973064365
C          67.36766205161727   95.54950138422720   73.88419338046364
C          64.77756428186230   94.35621218694304   72.73966279429506
C          59.91384790341667   86.52194218238860   79.56233816291767
C          61.81985077524384   85.78183051940876   77.15311197660355
C          59.17159257856091   75.96307926685580   75.54425730539484
C          56.17865109899147   77.25910103648933   76.12358310173860
C          49.69235206575264   73.95781453950960   67.72671110576616
C          50.96356392819242   72.36875450451836   65.30807752708907
C          75.43675232601358   97.55120232030717   75.86976329042578
C          53.20855635724305   81.85248437634824   68.03214173472136
C          55.47250722705355   82.70568032859507   69.94786051664846
C          68.80412162301411   95.83051282426563   67.74587953991995
C          69.75055548396192   96.69258068023892   64.66857307866934
C          61.20348819977838   80.21557339175190   62.31707188625506
C          58.10048016211724   79.94590888078170   61.54542610675102
C          68.06054013245327   87.75169767004397   64.08866265890964
C          68.61327182767899   87.67338921376515   67.92541908973566
C          56.23993779885930   72.86587041313888   68.17151097048101
C          58.68616426700915   71.88480018180650   65.26809490000194
C          69.50057536580283   77.75344914377759   69.95324277616989
C          70.44501455225233   76.06088621742410   72.29235817256614
C          50.86653233178472   72.19667357759235   58.65406717941706
C          51.32562808268090   73.29235224668564   57.68444109002598
C          49.73562037919581   72.58634494131944   59.60761209192899
C          74.68558889641311   92.60040327317171   75.31972470242408
C          69.35889932441748   93.73662220024470   84.27101516569275
C          65.31484337622176   91.21410229462877   82.13081231058723
C          67.84221188221301   94.82423374463428   75.13865378154884
C          63.61934166137483   93.49675054444245   72.23248058478215
C          58.74603023414739   87.25630846795305   78.89189655805812
C          63.03618074678175   85.24414846839477   77.90715252813173
C          60.62651452789769   76.22025532509517   75.16022373466626
C          55.75688468568094   78.66176313692080   75.67976711204720
C          50.35189045982106   75.33142283450120   67.69939690911684
C          51.89370714355174   72.64073388174003   64.12047556924759
C          75.40395949522777   98.94733106130995   75.24746749719489
C          51.78964101891327   81.53677673871300   67.56830059478926
C          56.89861529201943   82.77087345572127   70.46890527839334
C          67.99987348895772   96.41348234570685   68.90949888188332
C          70.51136654941432   96.38832131738590   63.36990718961714
C          61.01882055273637   81.73557965127168   62.41158358376218
C          57.58190176274000   81.03265383386386   62.48431231469954
C          68.90424009071332   87.54795983771011   62.83808676390564
C          67.68580462600258   87.38764119295094   69.10358357876524
C          55.08587316966790   73.63460859703093   67.53643767680236
C          59.30932540618045   73.16960733897170   64.71409403356606
C          68.33965624756655   77.95966752126903   68.99257090367321
C          73.40751458835150   93.58254837551189   79.49010127054551
C          72.35286844011512   94.22853955858700   80.38474839671619
C          68.70822509016921   92.67699458750008   79.27180333804165
C          69.06793518931828   93.60850344914677   78.11669290059436
C          60.95758681210455   89.99663225010057   73.87619052893793
C          60.48934714979007   88.88769109982228   74.82503981887369
C          62.00024748961783   81.02248916271229   78.20313010072290
C          61.93427192740495   79.53362301925121   77.86277033531559
C          54.17656666297358   77.50498577908040   71.82803203869824
C          53.47920721862320   77.23902015251068   70.49699624839030
C          50.45657588928453   76.92559464575071   63.57738624302453
C          50.52374837268350   78.37727423002467   64.04428537173945
C          72.41107400196519   98.73100923655623   71.65121923704103
C          71.13538593221431   98.89546737278150   70.83462637673027
C          61.15185417400589   82.86969131639819   68.28578831751085
C          61.81413355391315   82.72086818233214   66.91912172855773
C          71.53519528488171   92.41347954841299   61.30243872301501
C          70.95836281183021   91.07749839860055   60.83021667828603
C          56.89933388274295   79.00048717125861   66.67586465065288
C          55.86574624139001   77.98006691423215   67.16145905778093
C          65.17539957597018   83.13479317218402   69.37500210075612
C          65.39828428965288   81.62311970591770   69.46213147721359
C          69.25663647776878   75.11076984417946   72.17365617491585
C          55.85204133586350   75.89793491722870   62.48588187892318
C          55.06950965909797   76.03737597999407   61.18199425712074
C          51.51479213557756   74.67472734241476   58.32144500589932
C          72.88826278231532   92.41370697262917   78.64298566102558
C          71.69927155049079   93.26074026214204   81.36501434410509
C          67.40024736249507   91.91299801848606   79.04091265123687
C          69.33862484823307   92.85285903572020   76.81233194167481
C          62.05358075076420   90.87767574328592   74.48893933643302
C          59.42561111421000   89.36829205355144   75.81660161980382
C          63.42826338181803   81.52572212961157   78.44391104559185
C          62.49184000925445   79.23684384395014   76.46423036737544
C          53.67545915377156   78.77848162042719   72.52886238505099
C          51.96443099908055   77.08241520804437   70.63824076094556
C          51.84068602952973   76.32223623049846   63.31427046171642
C          50.90628161069706   78.49924641900147   65.51582321086333
C          72.54137464002432   99.64686222968930   72.86987649296715
C          69.88478015452846   98.35457878137854   71.53838603699459
C          59.99647068964062   81.87887806372719   68.46893740233980
C          60.97414503565362   83.37803988776432   65.82070704822895
C          71.09644556934738   92.71467515969842   62.73758513992746
C          71.58820699145357   89.86238897594747   61.53096613850678
C          56.25286882282604   80.16640813166775   65.91280232533036
C          55.40383777706896   77.07831257781710   66.01434426926946
C          66.38711905990583   83.92087543246637   69.87329992442365
C          66.42119684822647   81.15724520738517   68.42196129615260
C          57.13090236845505   75.08893127864766   62.29151187414224
C          54.42495079991108   74.72055003897412   60.74284398546499
C          48.46890014945116   73.09803118528608   58.91999001401348
C          68.15123993919033   71.79293839935922   75.50700174713967
C          67.88341425947024   73.26185640367339   75.16543938651488
C          73.94915020713192   92.09048553572281   77.60899653375419
C          70.74907119457620   93.97182282599545   82.31107380880992
C          66.98377845370710   91.23664891965424   80.32946863425448
C          70.02164645199598   93.74876166674225   75.80300015701386
C          62.19637453276535   92.18459416819218   73.72194720378417
C          58.84659200430291   88.21012196786151   76.61530711188141
C          63.40164214443971   82.99572234789593   78.79092484849102
C          62.25148399015166   77.79174997088262   76.09383495389062
C          54.74838039018838   79.23084479622941   73.49844452028935
C          51.35424480152304   76.90695498938736   69.26339835392145
C          51.66834296071507   74.84246924142580   63.04993241484158
C          50.85635862816549   79.93374477697904   65.98934008640384
C          73.97127297108959   99.51641638504967   73.36710364058773
C          68.83470989131440   98.10709633340647   70.47112966189924
C          59.16703732247830   82.28448853615241   69.66797114022921
C          61.53402339628302   83.03917214749096   64.44950459339070
C          71.42740694355022   94.12785080149597   63.17730881384578
C          70.59106591973976   88.72159665145503   61.53864878933095
C          57.21105673228755   80.76866081219501   64.90294772329061
C          54.74485856207922   75.77967083984026   66.42732299386736
C          66.28525963160573   85.41449398008989   69.61646611170706
C          66.70107728438695   79.67257668862570   68.50836812737570
C          57.87381080380163   74.82055195354442   63.58925543506106
C          68.01931795033920   71.46988624152026   76.99452488171200
C          53.69220104109345   74.87715563245342   59.42434749763611
C          68.23341947941312   73.55765129281311   73.72122121303124
C          47.60920103866449   73.93710648550382   59.86844960646539
C          66.62535405095618   71.74206378971643   77.54530882119562
C          66.53601991810629   71.65358297039869   79.05617463820765
H          74.54598074680865   95.08097545059351   76.39650239274684
H          76.20836239774582   94.84972076922310   75.83743033313593
H          66.92207241422064   91.30354100262515   84.74393586664458
H          67.93951873138744   91.48735731818348   83.31329971194148
H          66.88131387904770   93.51841898616614   82.67517402847135
H          66.22077307725827   93.78677742468707   84.28988492495776
H          67.18797518871799   95.32130978255387   71.77310957948249
H          68.24047270072298   94.13165130093044   72.52002161133289
H          66.19162281510839   93.13158505477338   71.67569612272935
H          66.25254023262211   92.93466312793731   73.42635144677938
H          59.25184058604919   84.52637607964924   79.14894490610735
H          60.95205156679332   84.64485358389452   79.56017668968909
H          59.70365655915078   85.55450372997814   76.93655744380229
H          60.56563212075367   84.04030996506454   77.20402747682191
H          58.37662874428066   77.80332218847568   74.74068738386725
H          58.40339737552762   76.44067281946766   73.61751418370585
H          56.65410327934867   75.35976992576197   75.21696090628311
H          56.12888809805649   76.60082785390470   74.08515438241852
H          50.07749783677946   71.86016866750889   67.88935424779251
H          51.24016227000516   72.86785533268471   68.74512403106942
H          52.35071387274066   71.86433696509722   66.86603837607134
H          52.20923800798488   73.59148025643579   66.57808055434131
H          74.15850127658932   96.60998620478004   74.42544682623067
H          75.87755579976336   96.49154406178702   74.04498901442676
H          52.93351352538367   81.67866645711348   70.14948971478726
H          53.22502116095389   80.14167939930432   69.32647668951822
H          55.60204197714894   80.76766738574955   68.99367415333415
H          55.15843323279159   80.73199734685650   70.69662895964240
H          69.44435557439530   97.76197745271344   67.03670631851840
H          70.64778455377059   96.88265769483522   67.98069710639675
H          70.62010598159375   95.18337236661955   65.94474335723841
H          71.53729891318984   96.67208827926289   65.84256045264037
H          60.64159602065186   78.48727698062241   63.44684954808172
H          59.76117648184164   79.91562969241618   63.91540257470679
H          59.38249849795228   78.27329906126384   61.38000300748958
H          58.36488239540723   78.23527192032769   62.82542811019171
H          69.38500658475414   86.61331619716650   65.32962564591490
H          69.57034097606196   88.35465831385150   65.51480968682891
H          67.37132520347049   86.55494603035670   66.58806304134458
H          67.14961722242306   88.30786763522228   66.49339099031035
H          58.26715941205218   72.26460528699573   67.89956860353426
H          57.87899773857210   73.81942836567158   67.16989658406922
H          56.71032594877754   72.72413122628316   65.32249363586664
H          56.85249890522041   71.15309100986353   66.11795134255800
H          68.09227465116000   77.65350937449857   71.56565652248075
H          69.01016579273912   79.14185377652389   71.51084614700709
H          70.95872648744860   78.12721785322081   72.45424753478797
H          69.56778271177720   77.65523067966393   73.43402754459304
H          75.35916442797748   93.86759439700856   73.72467862805151
H          73.69437892121785   94.16620800991829   74.25184268686702
H          69.19810135503947   91.92298325527410   85.38387108347312
H          68.04528074909922   93.17486124844142   85.84668812745723
H          64.46892861905783   93.09692703195907   82.70299666828689
H          64.64367384343183   91.93411801114743   84.01726186031262
H          66.38623839838046   95.97707853899519   74.07663771870277
H          68.04910225155757   96.38030552702658   73.68697538043610
H          64.79206596790202   95.26791590937579   72.14066739417517
H          64.57482053046503   94.64831231278858   73.76921442230139
H          59.70727948353201   86.42796399577966   80.63025188613462
H          60.80858684549322   87.13778019757706   79.46827811775178
H          61.73938651973184   86.85026966842813   77.35526653452908
H          61.99406974043075   85.65489648083192   76.08230843099305
H          59.02549074948026   76.23602507307295   76.59047249583925
H          58.97740006360036   74.89383690271349   75.43279538073438
H          56.92199176478113   77.35183139816031   76.91482974993276
H          55.30466968443977   76.75647067404137   76.54675782557257
H          49.01601373907145   73.91394602917103   68.58239521483195
H          49.08304090976585   73.85974072923472   66.82866747103013
H          50.07949172989093   72.99468885419758   65.18343501445943
H          50.64066934237859   71.32666472675464   65.27812580360131
H          74.68629681640829   97.51189390755150   76.66104697427080
H          76.41984369541574   97.39368261734033   76.31860506724107
H          53.30366633781433   82.93442012619602   68.12993111691540
H          53.90959578254601   81.51258797255309   67.26789460927554
H          55.40658222606840   83.26077211793010   69.01003533829231
H          54.81956408472760   83.19826100651454   70.66979109007447
H          68.10081200704641   95.57852400767318   66.95059509467509
H          69.28341170946526   94.91139408003285   68.08935301172576
H          68.78659770722555   96.18115153101002   64.64030135295512
H          69.56161893597232   97.76657825233066   64.71883133296541
H          62.18688850370379   79.97290769872511   62.72389686714960
H          61.20542858068383   79.94260784330596   61.26118626505911
H          58.65149609989447   80.41853161769865   60.73269071793953
H          57.24148446670699   79.43397667298238   61.10386261423392
H          67.24800437328150   87.02340282399665   64.05705547764795
H          67.61836516943204   88.74908367521127   64.07193291336038
H          69.46603318404527   86.99198199853542   67.96882122710272
H          69.00007525377453   88.68905512473098   68.01848997622780
H          55.89330365049687   71.85264346735990   68.38643723437374
H          56.48976491583320   73.34727326350601   69.11942193370119
H          59.38995404773131   71.42654140565033   65.96537875698573
H          58.54286197091758   71.19107727406052   64.43660081262021
H          69.82266672167852   76.71681138964790   69.86014587447079
H          70.33393788383026   78.39174418578872   69.65753817497620
H          71.07405814533683   75.94907695782199   71.40898476292945
H          71.04608482821686   75.76000207434736   73.15092597381205
H          51.72020174430938   71.88736089957182   59.26153856013653
H          50.56057878944082   71.33222283858213   58.05994495797397
H          50.60229965243163   73.40074397804460   56.87434761448637
H          52.26964829006780   72.97254943577016   57.23819683983994
H          49.48061671772147   71.70871887253821   60.20706866933736
H          50.10175069122864   73.34020928017819   60.30053854672507
H          74.41493059104955   91.80860952539508   74.60991320987638
H          75.66679461481093   92.36672194382031   75.74236962145551
H          68.71758828276889   94.51587050525102   83.84616993941096
H          70.02636254617532   94.21948261122058   84.99717964428631
H          65.99423396380097   90.45609100823100   82.52253142678792
H          64.33970907998010   90.74944841619326   81.95432769181093
H          67.30222964359339   93.88116931840644   75.25424901618750
H          67.62832376108059   95.44900158002636   76.01548534245833
H          62.70225134886735   94.08984875390232   72.21702688546388
H          63.84570376134634   93.16250797237196   71.21564539544865
H          58.17527511016183   87.80090243830087   79.65309173799699
H          58.07082168202253   86.55455852606964   78.39863119643834
H          62.95961651682572   85.45423087876038   78.97511128486268
H          63.93589992384483   85.74596500563139   77.52799395968749
H          60.74247606747213   76.10483406767570   74.07488399533034
H          61.27706679319060   75.49308758696105   75.65275173957612
H          56.59013774965673   79.20499597109075   75.22897549987223
H          55.40142093392957   79.22840079155172   76.54894624278008
H          49.59859747323177   76.09008344247657   67.45207459532573
H          51.13305715283006   75.38390537633482   66.93452094433415
H          51.42025946311290   72.32066376845630   63.18881888425897
H          52.83829627041732   72.10192406981899   64.24533006408677
H          76.14441035729024   99.02889220218157   74.44764541268144
H          75.63311493099985   99.69553851134182   76.01509873162730
H          51.09956127882463   81.64377589256107   68.41166035975247
H          51.48342478889545   82.23322280589126   66.78580768407869
H          56.99713691242466   82.13407881823997   71.35449543335446
H          57.14865664083937   83.79613602093248   70.75937090328260
H          67.31587631078682   95.63919022428639   69.27722989233308
H          67.42324989401583   97.28238220238239   68.58060143503884
H          70.11223688823499   96.99860151347464   62.55409282332879
H          71.57140876263837   96.62511751359847   63.49874754958897
H          60.19108109433331   82.06004975493761   61.77820512067839
H          61.92862433823581   82.23172526202704   62.06833308769485
H          58.38837778990825   81.66783294307507   62.83961182355468
H          56.87720167867581   81.66061768921422   61.93082098113199
H          68.26767235460098   87.59994360366105   61.94805179675707
H          69.34868603923819   86.54600474142241   62.85282623598820
H          66.72578407017252   87.88533676883084   68.96255019558404
H          68.12878772512973   87.74894131879960   70.04095687588034
H          54.23622803252272   73.65057801814106   68.23190511735105
H          54.74923736948541   73.14106867823092   66.61910948147232
H          60.34220411939050   72.97944427585529   64.40544865273696
H          59.30951030672428   73.95579389563363   65.46653313815762
H          68.62478419636133   77.62785508067144   67.98614990761381
H          67.47100367725842   77.36620590306423   69.29789543731833
H          73.79546434698518   94.34725572781541   78.81284009897604
H          74.24045167476773   93.23103221763589   80.09904066907210
H          71.57994415836809   94.68986997688660   79.76634356064751
H          72.82871400190224   95.02785878339533   80.95583861147010
H          69.50979204460950   91.95226797207224   79.42278246545683
H          68.62803797055720   93.27062799150644   80.18679352290793
H          68.25949010980987   94.32434456069602   77.96466024274990
H          69.96040878282588   94.17495681777679   78.39171972239141
H          60.10049969597553   90.61216962411038   73.59364898622691
H          61.35148730750696   89.55057093503117   72.96057753380498
H          60.05940501293186   88.07444623540322   74.23905314788065
H          61.34340142378762   88.48095309531189   75.37151267639136
H          61.54931978578909   81.58621998839182   77.38493988103004
H          61.41317775123358   81.20478883750582   79.10484514756263
H          60.88841191886217   79.22277927289080   77.89009314424007
H          62.47956764388848   78.95426813264220   78.61069370064361
H          54.04041515346047   76.64487533848219   72.48747735170700
H          55.24630460373095   77.60948710503938   71.62962376286782
H          53.89535357172974   76.33142951178648   70.05467815828152
H          53.69029263958230   78.06116282701738   69.81076134850819
H          49.95067673300952   76.33065588033705   64.34160300880147
H          49.86153406581716   76.86089674379780   62.66355338120813
H          51.24710208423056   78.93276129153428   63.44469908349452
H          49.54922726356807   78.84410069188594   63.89463392954293
H          72.48356942987759   97.69329728248161   71.98582001885596
H          73.26583801875188   98.94055958152833   71.00209147530866
H          71.26451001598473   98.33945898139854   69.90138206963509
H          70.98665836013528   99.94349327822670   70.57339978294162
H          60.77502322428050   83.88908505734102   68.39624292448656
H          61.88227588166694   82.70468196906643   69.07847262872885
H          61.93992939398549   81.66159331399010   66.69363769568950
H          62.80346387871590   83.17744218135404   66.93621544391087
H          71.17293353705087   93.20625605929037   60.64409586208551
H          72.62405094227971   92.39708018664420   61.24374315541020
H          71.09335952833446   90.97681046386019   59.75255837098449
H          69.88165817211083   91.07903619319215   61.01919612345390
H          57.60493934543666   78.48629498378990   66.02163166145083
H          57.46678431830136   79.38869390392507   67.52444081193758
H          56.32472837436976   77.37323679418624   67.93993070227957
H          55.00868930395195   78.49338152220227   67.60376537391653
H          64.99518898766030   83.40679550532238   68.33572528203553
H          64.29111224294276   83.42344460429319   69.94792729040569
H          64.45500500262412   81.10096422613765   69.28991687287454
H          65.75530738943910   81.35585357217396   70.45995459906626
H          55.22252586880402   75.41621576032787   63.23678449415118
H          56.10581045783217   76.89106596112750   62.85766028056012
H          69.56849066322597   74.17791616030487   71.69599896740590
H          68.47514764932571   75.55557427951904   71.55241122413736
H          55.72961922868575   76.39376107712306   60.38793532635960
H          54.28410849201006   76.78005829537420   61.32883629220742
H          50.55145963464891   75.07936650183328   58.62870644780588
H          51.96066658505316   75.34616685786158   57.58150323951654
H          72.72035267624941   91.54181428937582   79.27512118503620
H          71.96121983143699   92.69492337369368   78.14831961086563
H          71.14449148043137   92.48325108061668   80.84195562158104
H          72.45717253653312   92.77750484204739   81.98211786739024
H          66.61682458013881   92.59504337387384   78.70958825661805
H          67.56742061989367   91.14655533439030   78.28047415413413
H          70.00339371245074   92.01031213133855   77.01097802531503
H          68.40994606692442   92.45377814621854   76.40994127230023
H          61.78818492299996   91.12066317000033   75.52043370977516
H          63.00107432668498   90.34252742578242   74.48809697169222
H          59.84776190186079   90.10355943180298   76.50102460610280
H          58.60907708714819   89.83157129831935   75.25708825123608
H          64.04746289829956   81.38142994513701   77.55883060927445
H          63.87217774369408   80.98608921855859   79.28162433435934
H          61.97610619912334   79.87954888984379   75.75152198034928
H          63.56129590798867   79.44823526692694   76.43944345356032
H          52.73796737013292   78.59704316677838   73.05327590134632
H          53.52430858593661   79.56643691007683   71.79211772067802
H          51.73088374766240   76.22181206141721   71.25881369133707
H          51.54266764746725   77.98140659049905   71.08907968134548
H          52.29020784049700   76.79438400226324   62.44041456436722
H          52.49404757524111   76.47070288113746   64.17146576372818
H          50.20892390362129   77.92934646804778   66.13330963371433
H          51.89934035332187   78.09221827552309   65.69902219272413
H          72.37314709385483  100.68306354847067   72.56926895742977
H          71.83677218851220   99.38694662777804   73.65751320738171
H          70.12644636061232   97.41585074397705   72.03602084545618
H          69.50989690782387   99.07344376109225   72.26572481569238
H          59.37798206366347   81.83434320466611   67.57274075429427
H          60.40673986093822   80.88230640950808   68.64963293251486
H          59.94297151078293   83.03519445965365   65.88296216976555
H          60.99165518792157   84.46099422335411   65.95565921950251
H          70.01779417071182   92.56654490483510   62.80416258382427
H          71.59669997973126   92.02834414746341   63.41809447034593
H          71.85343560243952   90.10342182014600   62.55707650687046
H          72.48660614538319   89.55324224287605   60.99585771880177
H          55.36571643296881   79.81191473253917   65.39050145327784
H          55.95536146883780   80.94929625141029   66.61444823951540
H          54.71721758590549   77.60931119009720   65.35265165613028
H          56.27872694030813   76.78005712944558   65.42862783316440
H          67.28925038679979   83.54718447367566   69.39549644911502
H          66.49888866177334   83.79313234079792   70.95527065101744
H          66.03050558652171   81.37530386681661   67.42596659502667
H          67.35568063944372   81.69497599079428   68.55955553815693
H          56.90417453767263   74.13391821320799   61.82229976751930
H          57.80571109274864   75.64187528215928   61.63288240217128
H          55.19958732616875   73.96711982657114   60.59044320905119
H          53.74572926652843   74.36255991634944   61.51528562409701
H          47.88067013355822   72.25503313835078   58.55239305780099
H          48.72698610717494   73.72067757028789   58.06443829763376
H          67.46828538885273   71.16124054378592   74.93589463329035
H          69.16467962224205   71.54260030463605   75.18938203700085
H          68.45371563810966   73.92565426700526   75.81434502678104
H          66.82389143223494   73.49347926160152   75.29878161431488
H          72.84812456618211   93.09159723702992   76.20611208747444
H          70.32585199516191   92.16419352633888   83.16514377613160
H          65.36087239818643   92.46780608136513   80.44595887577529
H          69.77670986370011   95.14677106088054   74.41096051504941
H          64.02317738878689   91.58287130761362   73.03094903419640
H          59.90391507434262   88.86270418708479   78.23251529906740
H          63.10469491527396   83.43916281930571   76.82162954811967
H          60.45103284496826   78.33094929765772   75.33716232150134
H          53.95457641758610   77.95167108186138   74.86566162511946
H          50.93163202194232   74.96663376917729   69.71003146421351
H          52.64415060266900   74.49443473535509   64.78548385627634
H          73.30101562118915   99.16033331687562   75.27240191148000
H          52.04270277641702   79.42974058519728   67.52599027925443
H          69.48545858524372   96.16961345095135   70.38296112584226
H          57.48181921723613   82.11476870575146   68.54515059589247
H          69.60170583519941   94.69899347838144   62.45103760082556
H          59.89861883443425   81.89708089944969   64.19176998541175
H          70.24152987441593   89.07008460760275   63.50999726710410
H          56.06353165350295   79.95348539150807   63.43417191994343
H          68.19916163736012   85.36514855258524   68.97760540133312
H          56.33314602112709   75.32553594353128   67.62929804825495
H          58.53058268236975   73.06941170090468   62.76531907236901
H          68.61365449803849   80.05854326261699   69.15948351213818
H          68.61055372747711   75.51667152973636   74.15986427962476
H          68.25807858035982   70.41543528256365   77.14359935585679
H          68.74211017132311   72.04848715583134   77.56571382461422
H          51.94187513777648   74.43257344836286   60.37022857070600
H          47.45005015002388   73.38192725925560   60.80402028603574
H          46.63096751384501   74.10581053560729   59.41278152446690
H          65.89414267849622   71.05402973590174   77.11651466321599
H          66.31259707275170   72.75837813279384   77.28770993770787
H          49.05545085545315   75.11695282662231   60.67024427535826
H          47.58799460836224   75.82906528276423   60.64377553915045
H          64.61252655052640   71.73001733806184   78.82471118454954
N          73.73554349626157   92.63345014227885   76.40934591641799
N          70.15771015237026   93.17472434923259   83.20173262487812
N          65.86335968245572   91.69510637601374   80.88071427981140
N          69.26436911688074   94.56705818412792   75.06405204320237
N          63.34549880593083   92.33651255042504   73.05184831860169
N          59.19615159347544   88.21219138208664   77.90615219932567
N          63.18325751326221   83.81489461791946   77.76207312492272
N          61.06729327415566   77.53974442596660   75.55418811709859
N          54.71408711551162   78.58859826257093   74.68291154575255
N          50.92957474827426   75.67590679808286   68.98317287660740
N          52.16077269083582   74.05537802924168   64.00659641672929
N          74.11434657905750   99.22901947448005   74.66364727428308
N          51.69947064648789   80.21671380284840   66.98846089103532
N          68.83896266725881   96.85257873896693   69.99821762644950
N          57.84565548171595   82.33536725068490   69.45820996363612
N          70.42172171914335   94.99770046385267   62.98920332383598
N          60.76820860774525   82.19503333218653   63.76039400185305
N          69.93335853680908   88.56097879765454   62.69128410886745
N          56.89410473920635   80.50189717334739   63.63750606996755
N          67.43538434492901   85.96995696453922   69.23280442111847
N          55.47848661334179   74.98592742587797   67.20476982733517
N          58.55772524140540   73.66846773596086   63.58547813565641
N          67.92262413866983   79.34443429092323   68.93725129551019
N          68.73260045575830   74.76301953295429   73.47806894273542
N          52.37887242239265   74.65055129532850   59.47964634869953
N          48.22419126256263   75.24557987688293   60.09738722405393
O          74.94644735708545   91.42477563512446   77.88156045095145
O          70.54620311444907   95.18332332951428   82.26839394622129
O          67.65323520666881   90.32485320279363   80.82528397121061
O          71.24112512328483   93.74311051022448   75.65855876352316
O          61.31189975942823   93.02978257018378   73.73513710895810
O          58.10794713351130   87.36725090466719   76.11603399237814
O          63.55971468477947   83.40799842978646   79.94293539039097
O          63.10168831081240   76.91105456825250   76.29400530797136
O          55.59228365621338   80.06276365449143   73.21488661120468
O          51.28609393151368   77.84097673655843   68.46749369114308
O          51.10366975609335   74.42053931524489   62.04107324670403
O          50.11271341837268   80.77658413819306   65.48593262791530
O          74.92336989587282   99.62805449592464   72.60222312844385
O          68.09770253901063   98.98759971675918   70.04895870048240
O          59.67279675108907   82.56950560107926   70.74592438148248
O          62.60346824255680   83.49096032222312   64.04921675974816
O          72.49598493057492   94.43425291933387   63.68327206061260
O          70.36484779117676   88.03210163176568   60.54819347215600
O          58.18817388693700   81.43982240978521   65.23826661083447
O          53.63822321045330   75.44494743672297   65.99951302779417
O          65.25952744163153   86.05366338571223   69.83168756215295
O          65.87393868731861   78.82267046512553   68.18915007965225
O          57.86366725511018   75.60039333070614   64.53162533079553
O          54.27700714984883   75.19449930839650   58.39200816270627
O          68.07715077630633   72.71789390524724   72.82529035229142
O          65.30491155049077   71.65624597172493   79.53913654280836
O          67.50028613876717   71.62156947292407   79.78579729004686
C          54.26163231417718   84.87318363072276   58.58800180881271
C          55.19233566868957   84.96676775164028   59.79931255107915
C          66.93532549276432   85.34343224674113   57.98716757068179
C          67.45074299770936   83.96152101317693   58.38735574445329
C          55.62329885426055   78.84784399088404   56.39890422924310
C          55.52017999716634   80.02044678263677   57.37285263770165
C          62.59807932915957   88.27661898272297   56.11713532708391
C          63.95855522040365   87.61597128263192   56.34398430426153
C          62.80396061786032   87.74922585162396   63.54617523479259
C          63.81241850172183   87.40065786959161   64.64106270055422
C          44.39905267779213   93.58398266282153   57.84365099712419
C          45.63325196382817   94.30858370283731   58.37915630424418
C          67.52038268370163   79.47787403303050   59.83767111134274
C          67.70866731642531   78.11484903216734   60.50119036415557
C          52.79396788946073   85.29337313670607   63.50413861618974
C          52.47830583106386   84.18033977624890   64.50171203779884
C          70.59846735039186   70.80266151575539   70.98987186612092
C          69.62300405573555   70.38195410957839   69.88341983849870
C          45.76016999908872   76.22635255214541   57.60980095923873
C          44.35561677609686   76.82088048613704   57.66863009076815
C          64.62839031798872   76.39588187046868   79.07536275144496
C          66.07643661773984   76.87302235341771   79.14823730198125
C          48.13395483194084   84.06733603527994   67.23551605451527
C          49.57815557312353   84.32641522204027   67.65540743221456
C          44.50770627646600   93.20213449943729   56.36638229919629
C          52.95437841543541   84.11294379211974   58.82354027850052
C          55.70824241579535   83.62817858784324   60.33166772319688
C          66.92294777962876   86.34243806941807   59.14293396524560
C          67.77856571238360   83.08000797321648   57.17931060540194
C          56.18657651454168   77.57680823845635   57.03813994865794
C          54.52071733253391   81.08561046180270   56.91805504240671
C          62.40512205466192   88.82163260588757   54.70301667857649
C          65.16546600415062   88.54098573840906   56.15411374515320
C          61.59035370421677   88.55207606653286   64.02398421559865
C          63.17267387277879   86.61378786978122   65.78423455138449
C          45.43005810016559   94.85573783081283   59.79053440055136
C          66.32799923883391   79.55743887973095   58.88526792644045
C          68.33298746357391   77.09498912071390   59.55401408782115
C          53.07680216741401   86.64419330172134   64.15466382210997
C          52.19266107330969   82.86270385471484   63.78004355852760
C          71.92460303727201   71.38839008119980   70.47447633160866
C          68.58698400219603   69.35814380980183   70.36078564731255
C          46.58353038909357   76.83575507964136   56.47845053789986
C          43.47555832725677   76.18800187716595   58.74958835708276
C          64.48614235669908   74.91355539646055   79.41481745315058
C          66.23846648224136   78.31052453154516   78.63948017974349
C          47.66718176944630   84.83193514061726   65.99369589019267
C          49.90219767136941   85.78775996056250   67.95424622764133
C          60.78540082199518   72.31545702406002   70.46459851615138
C          61.42352950997702   72.55892373511911   69.09565866364727
C          59.76954364157677   73.38168040870831   70.87417048565739
C          45.80038595183215   92.46834403548618   56.02225068365931
C          51.94324874142564   84.89448033691842   59.65291826655518
C          56.59066973112594   82.83490683356867   59.36849686889691
C          66.15527963184425   85.83740040059958   60.37000572171981
C          66.64925041765288   82.97710302728167   56.15971817142622
C          57.47378602451862   77.79694014560594   57.82189004087957
C          54.93244982681707   81.81459805710723   55.63963146042183
C          61.13888127706104   89.67366325848177   54.59303555602024
C          65.08110536170057   89.84631358158362   56.94100808163469
C          61.95617100432214   89.85709522290404   64.72340381809383
C          64.18593087030764   85.79031330222577   66.56994147974967
C          45.16942796213614   93.77096457007069   60.84025444231528
C          64.97630832747697   79.44342037354308   59.60221070256453
C          68.48433849863365   75.72249068227799   60.20117673540962
C          51.84785113666234   87.30630855456056   64.75484738171893
C          53.48397803513544   82.16549503053426   63.34893199468010
C          71.96619949502761   72.91254286525505   70.34210102053210
C          67.52932729633984   69.92219665834190   71.30927323884764
C          48.06130440666672   76.43563122510551   56.53484080299020
C          44.06629696296377   76.28113591057965   60.15585685379940
C          63.15820920790298   74.34306039126794   78.90919600438042
C          66.78147787040351   78.40744737420748   77.21502242718495
C          48.57320681876006   84.70905276247704   64.77229562946098
C          48.62202978053968   89.29632464509598   57.71449757927653
C          49.16912174299880   88.15423912135633   58.56790203338754
C          60.97777351359628   84.14630234872421   57.96622576116889
C          62.41368822088553   84.50740434031961   58.35037300257478
C          63.01221788100836   79.92709075326120   56.17472570526787
C          61.88597838317964   79.24917660198253   56.95168701924782
C          57.32588244353391   85.73347242608115   56.74062940347524
C          58.46263383702500   86.75994181651936   56.65936756658579
C          66.39294218946996   90.80072440827273   61.60689405582145
C          65.92757772186332   90.81152123606198   63.05980535677470
C          66.48969238014988   83.60447857840970   63.51747054520317
C          66.33440643095301   82.59708501773895   62.38191204809581
C          46.76518287034109   90.01364264566972   62.40774791671789
C          47.77302133428189   89.53408829115838   63.44797201309696
C          69.61069599033920   74.87888257446446   64.95812392398435
C          70.73791383805580   74.47201503522379   65.90191827119112
C          51.88694487425698   79.21776366513238   60.54697429715269
C          51.44207668153922   78.64575113038664   59.20809018689943
C          64.18040777964227   72.03451724688310   73.17451233682354
C          64.11915490912429   71.94798332012716   74.69832649721560
C          47.12876868926669   79.76156410872693   61.92057960289863
C          47.26750015353863   81.22905032930933   62.30794798067830
C          51.34926505866014   85.92442698121535   68.43471034785529
C          65.62181400100130   77.01338507321263   72.95986987838337
C          64.33445707152555   76.95233327414735   72.13836183201059
C          62.02615356418838   73.95369238093876   68.94923237197892
C          47.10136067803634   89.25124454079690   57.52183989601670
C          50.66946999601468   88.34396917788499   58.81471506662877
C          60.32815834656073   83.15984439374692   58.93872075529528
C          62.47829340861520   85.26491980466299   59.68137610403861
C          63.25543288482059   81.37497793247331   56.60495194488955
C          60.48353095295202   79.73875064010889   56.58680201254053
C          57.37758638808484   84.70614475986437   55.60457579628208
C          58.02602057160222   88.07390788833818   56.00515275370748
C          65.38598507333275   90.11913769599754   60.68651941825915
C          64.81538060421542   91.84637807371280   63.31475519630380
C          66.08905281675352   83.00555585024003   64.87021541361528
C          64.86391968390690   82.32653101555586   62.03763698775563
C          47.41188070028533   90.77267188893985   61.23521282838780
C          48.71256998609039   88.42791180484303   62.97135768434906
C          70.11963628603277   75.16399008844348   63.55020821358592
C          70.29947997045542   74.53946635936713   67.36276653471100
C          53.35862108536865   79.63432345775918   60.54154016503464
C          49.99632500567601   78.16049259631603   59.29046995256979
C          65.24340048307462   71.09692392854491   72.60604225881497
C          63.32019843569687   73.08851507745045   75.33365797500858
C          45.70669147158020   79.40538431568271   61.50065282447757
C          48.72093481461452   81.60827677831752   62.61854823928808
C          65.51771073709735   76.31212880493410   74.32416001304176
C          63.92028645125239   75.51673699808786   71.81695492954415
C          58.97798890976033   72.99569258356283   72.12406588394570
C          51.13983432330021   87.66411542512695   72.46722545099196
C          51.96053779382339   86.41032992163558   72.12581751165857
C          46.73293998052404   90.26374619461293   56.45683900971355
C          51.19685468657072   87.19978495128042   59.66126884306402
C          58.89299470557646   82.86248161904336   58.54766402898967
C          63.77814355448285   86.03026023266625   59.85708497484119
C          64.48179287063363   81.92812497139235   55.90749362392601
C          59.48972170458541   79.12737211721004   57.56205871721419
C          56.05577678643120   83.97345463079827   55.47777505245787
C          59.21081844978330   89.01841138697914   55.95206499463359
C          65.62076879694355   90.48556065880840   59.23299851575135
C          63.89138092549008   91.28135110363671   64.36699623980813
C          65.84776567068339   84.11675601294147   65.87232272358074
C          64.79669658290635   81.63944633832988   60.69454703782414
C          46.32713302158747   91.61322277528178   60.59758435078597
C          49.61084919953457   88.00247352073102   64.12677451866679
C          68.99218598054641   75.18359400841271   62.53414101976647
C          71.43718742196718   74.19007649031472   68.30992379628327
C          53.74188420966603   80.17995668724622   61.90005063670763
C          49.42204670015520   77.92856111605933   57.90210324491538
C          65.40694180040417   71.23055150688666   71.10544284353456
C          63.38965844575678   73.04653453283946   76.85112596532265
C          45.57434572578954   77.92785800327022   61.15972125132321
C          48.75052042137713   83.07680281885062   62.96679989762861
C          66.52450530264747   76.90407793662364   75.29697130006409
C          50.95882837445154   87.87586046505771   73.96569379092450
C          62.91405776472523   75.42777603448107   70.68046289730150
C          52.24141188803974   86.48260140980283   70.64273387071621
C          59.86648759264266   72.74872892779899   73.34153418730897
C          49.95050837921838   86.90724832247309   74.58365742407570
C          49.88807190502386   87.10736860209876   76.07903156491935
H          44.23309065402589   92.67899573356448   58.42645693214563
H          43.52354911342659   94.22527873464786   57.96611567874191
H          54.01370376431800   85.88784243738938   58.27368647472208
H          54.79168906085582   84.40381974222144   57.76077451458688
H          54.67337672424622   85.47959324898598   60.61123719041930
H          56.05007806793087   85.58302973549918   59.52559560335369
H          65.92152765022311   85.25389463364576   57.59277128278897
H          67.56994058527954   85.74648894330558   57.19426881208042
H          66.70798618001031   83.45861353415737   59.00601803813311
H          68.35539337941746   84.07720537311211   58.98733210050297
H          56.25792617846863   79.11733699573260   55.55628265801328
H          54.62721556784135   78.61617031567262   56.01277844979698
H          55.18869537425697   79.63797088470868   58.33973066090547
H          56.50436309668678   80.46842465208682   57.50929029579849
H          61.81798183626091   87.53874715365819   56.31924382576389
H          62.46828656612759   89.08518715545759   56.83722606064612
H          64.06723724478908   86.76998658275443   55.66022458802700
H          63.97507357236884   87.22421395796822   57.36164481012907
H          63.31132782688222   88.30398442558850   62.75504290282999
H          62.44445750260508   86.81515522216833   63.10702509013412
H          64.59773825959206   86.79017587089159   64.19060877689694
H          64.28377868980482   88.30441779378171   65.03043874371139
H          46.48445180743596   93.62725199958864   58.39904724946406
H          45.88139349041449   95.14107095899323   57.71672015717083
H          68.42642299809305   79.72820051090359   59.28270906067960
H          67.39278082709669   80.23680860152882   60.61040794314997
H          66.75295885379133   77.74720881091748   60.87285006879954
H          68.36878358563443   78.22795293332706   61.36154070120540
H          51.94654840417735   85.40308439149678   62.82567666797337
H          53.66733443703637   85.01005896770693   62.91273073421215
H          53.30983819328756   84.04660400615090   65.19756634920567
H          51.60229193348862   84.46423758077424   65.08205726583564
H          70.83350287048779   69.91460620028266   71.58203644333335
H          70.11420658113414   71.51680010366175   71.65733645113387
H          70.19184920767789   69.92409310441622   69.07121201128840
H          69.10724934067660   71.25058637913756   69.47983309049458
H          46.26362730628886   76.42618140559138   58.55372026242059
H          45.69681161142895   75.14428796720770   57.47243410956375
H          44.43263920925199   77.89155802251365   57.86397234306174
H          43.86527784742985   76.68918296168424   56.69994383002077
H          64.01567903902856   76.98308896192773   79.76287231007858
H          64.25131876801719   76.56477440821473   78.06907881602288
H          66.42567360984633   76.79796790654790   80.17973905141496
H          66.69881666102111   76.21090839425112   78.54529534468705
H          48.01004870385465   82.99404953887966   67.06765417776475
H          47.47892309117813   84.34600846172519   68.06100186291322
H          49.78538492313355   83.73361881786508   68.55004014107885
H          50.24740016010075   83.96832202422229   66.87180404757196
H          44.46688984157675   94.10048377665434   55.74774023299453
H          43.64739233505486   92.58247229467959   56.10583560760922
H          52.49791533558369   83.88735362669836   57.85824838122289
H          53.15438231321900   83.16153811169339   59.31858008137112
H          54.86232153013081   83.00350329638644   60.62073340495325
H          56.29027951030756   83.82899404807117   61.23198328972808
H          67.94365435102907   86.56637809774651   59.45641669022495
H          66.46775427391378   87.27112974075627   58.79564709032929
H          68.04271763822780   82.07933106626766   57.52910699670544
H          68.64701120480552   83.48958794932102   56.65907997138096
H          55.45097375969988   77.12672288278661   57.70666119979298
H          56.38571649263221   76.86111778843315   56.23982297603210
H          53.55247155637104   80.61114119254175   56.73811003322861
H          54.38546647346821   81.82223513273472   57.71133467702860
H          62.34346407295639   87.99513384818718   53.99262499589035
H          63.25174891816983   89.44825532459443   54.42266836464639
H          65.27784210921267   88.79169901223601   55.09819176890537
H          66.06429473202381   88.00119153020155   56.45826114864428
H          60.98393516547441   88.80171321624096   63.15285276351567
H          60.98077761766309   87.95052814244096   64.69995462981839
H          62.43732095559721   85.92763856814300   65.36163549962879
H          62.65781497378159   87.28682206786505   66.46938384435467
H          46.31976051867958   95.41601390812119   60.08023110745449
H          44.58188982706740   95.54337889032871   59.79919623221610
H          66.38524151055468   78.77229243272706   58.13048749517775
H          66.36425206358594   80.51683156900573   58.36847653274160
H          67.72018334256414   76.98236779962170   58.65839473103259
H          69.31871158639542   77.45164740400072   59.24575433516009
H          53.51147581025491   87.31227023519784   63.41185262319608
H          53.81025654319006   86.52952978479247   64.95290684819088
H          51.58795307041993   83.08431823111682   62.89732677692092
H          51.60455393443195   82.19450285797473   64.40747832065348
H          72.16871230551673   70.94247380472535   69.50887144356906
H          72.72120807633068   71.11772482363483   71.17003027283472
H          68.08314504027776   68.92227022954309   69.49436544303616
H          69.10620603605039   68.54664172913368   70.87546964882051
H          46.51814419917355   77.92111226708874   56.53388990314511
H          46.18147658687703   76.52444805527470   55.51194595057895
H          43.30574181202964   75.13405118940889   58.52102537617473
H          42.50649953831044   76.69146020700353   58.74152082480766
H          65.30312406882113   74.35465780539680   78.95444068328975
H          64.55321320710463   74.75994183826948   80.49241922384347
H          65.27952352391507   78.82761657701781   78.68843542413296
H          66.93629198192872   78.85550436611358   79.27525088666341
H          47.59830562478438   85.89429910477014   66.23011783296940
H          46.67165868595559   84.46823239972491   65.73086538328029
H          49.75796391354987   86.39826066919248   67.06294731122546
H          49.22546425895398   86.17642326927204   68.71680198518852
H          60.29480728511005   71.33936098878984   70.44611092912569
H          61.58217054304764   72.27251385879376   71.20756245483777
H          62.20996946281084   71.81636993215317   68.94915487603903
H          60.68088076512215   72.43153925001853   68.30618973711347
H          59.06627081610444   73.54752772995994   70.05586672780099
H          60.28555972500115   74.32309564738341   71.06543299059066
H          45.76645280650086   92.09712750909668   54.99392504663757
H          46.64375802235674   93.16686759658674   56.08802157252709
H          51.05844065031569   84.27287330753370   59.84286567958279
H          52.36460306126691   85.18354531370402   60.61851410633131
H          56.47962876106435   81.76215260426662   59.57328517749912
H          56.29485145042218   83.00446759833527   58.33235724837940
H          66.74624787545220   85.08747745928181   60.89332446475608
H          65.99229146482485   86.68075639779414   61.04839636560317
H          66.95678255052196   82.33905067138343   55.32441846471628
H          66.43013427370279   83.96637420412281   55.74237610098345
H          57.83752616542356   76.82617120296761   58.18481563304369
H          57.31524556142590   78.43153143729853   58.69846326088789
H          55.12880231675030   81.08330108594392   54.85059363586065
H          54.12154641439385   82.46903896579563   55.30644406490951
H          61.07395577459330   90.10820180315272   53.59090134430805
H          61.17058967356514   90.48286272074694   55.32783494391330
H          65.96550967363258   90.45974400532998   56.74416105810350
H          64.20397184350968   90.42006993192992   56.61656717141960
H          61.03953948313315   90.41483721372668   64.95752690734317
H          62.49056014847213   89.67506315692816   65.65916886768285
H          65.05970789071540   86.38689693318388   66.84178755754249
H          63.72974912721269   85.43450502177183   67.50307938846944
H          44.31688533159004   93.15899621707541   60.54094238157558
H          44.94062513690606   94.25477367891850   61.79530734223421
H          64.81165810614503   78.42402508713653   59.94984325569058
H          64.18139331678317   79.70250274118914   58.89899070746275
H          68.90794877920102   75.02084518597266   59.47039640580453
H          67.51349872970887   75.33883874705377   60.52432881172098
H          51.41220376414351   86.68201635119644   65.53978537249536
H          52.15253889317003   88.24852222960585   65.22205545814876
H          54.27662775890123   82.90868502845044   63.20377452939697
H          53.82133184064597   81.45421557561554   64.10478507714139
H          72.96836985339354   73.23075923305876   70.04352884030251
H          71.74662299140998   73.37265127122477   71.31234363734238
H          67.06342922176071   69.09663398351817   71.86047324366291
H          68.00532754770349   70.59308451057368   72.02937130097058
H          48.15729666311557   75.35242505258297   56.41803465968709
H          48.59468603973762   76.93395220505023   55.72088660679302
H          43.32947658596889   75.94695779986743   60.89480318261674
H          44.94961109090863   75.64800475877287   60.25826937840616
H          62.98690328242017   73.35258946842771   79.33642417774711
H          62.33627311047705   75.00245783508576   79.19767042385665
H          66.80803048345018   79.46542975758960   76.93451480588320
H          67.79745142622818   78.00812775790186   77.16164429102800
H          49.56853371432381   85.09487477788984   65.00512584591416
H          48.17431928039628   85.32186471257972   63.96087452740791
H          48.88428941149099   90.25079384547291   58.17841073545277
H          49.09959837125560   89.25831093399023   56.73277402492230
H          49.00852046253792   87.20018911115014   58.06231579787650
H          48.65191672373715   88.10957655296399   59.52851969172112
H          60.96510299828228   83.71900275399231   56.96122008829137
H          60.37867812671208   85.05877410962584   57.93595589569548
H          62.82871764007845   85.13553523289265   57.55892473071170
H          63.02058849640702   83.60578984886205   58.41864352822088
H          62.78500211764302   79.91498244633519   55.10851225801401
H          63.93364303703420   79.35772398568881   56.32442927971692
H          61.93453442500507   78.17115345772262   56.77182387381274
H          62.02740953958885   79.40649260264955   58.02348215183188
H          56.36422802073162   86.24959918720901   56.71062455781767
H          57.39053283187996   85.19570783568658   57.68696469556718
H          59.29179037549596   86.33877874786234   56.08796299485356
H          58.82457503453063   86.98902059784020   57.66261490037551
H          67.35043854977548   90.28014576905240   61.53392173378924
H          66.53982830571448   91.82281153231349   61.25554584922089
H          65.55713907392924   89.81377104582772   63.30776770414238
H          66.77035418838589   91.02465034722221   63.71930145698298
H          65.85929923804723   84.47048262994240   63.30493081672891
H          67.52632373370413   83.94317352837082   63.55265583594839
H          66.84510073345305   82.99055346806522   61.50038900245080
H          66.81781626064556   81.65785339141172   62.65612379807048
H          46.05946098758541   90.68212411058023   62.90784127543332
H          46.19130007301232   89.17120150299429   62.01784724036806
H          48.37295010136778   90.38435065737227   63.77875074612691
H          47.23380022161682   89.16149173601448   64.32099955247291
H          68.86780190618400   74.08125484220265   64.90513371989871
H          69.10103458641733   75.76656687192822   65.33858591579258
H          71.60273203028491   75.12021092562698   65.75121547008467
H          71.06063194742045   73.45500187750558   65.67067784423313
H          51.26154149373122   80.07835654784705   60.79900821332790
H          51.73146494780205   78.46388808228475   61.31773964640117
H          51.52016586304258   79.41043798792359   58.43212140635698
H          52.09078474593047   77.81478340989382   58.92469501393627
H          63.20760196614749   71.80141826709652   72.73989342101413
H          64.44199069308688   73.05006903626905   72.87920939015979
H          65.13682338054745   71.98165490468374   75.08794654117078
H          63.68562885538049   70.99528084079934   75.00652388757656
H          47.80442063016633   79.53411321332801   61.09536911939460
H          47.41947053466772   79.12255849221954   62.75296775939407
H          46.64999549038113   81.44214116678729   63.18370771922522
H          46.91427785401616   81.85700205919127   61.48836332331287
H          66.42780161894686   76.54957048649726   72.39045827046206
H          65.88389853894608   78.06150517798848   73.11309019464935
H          51.73815916380786   86.91959810416041   68.21316799620169
H          51.98549828644760   85.19198937309366   67.92063961370823
H          64.49403794043913   77.48885813020183   71.20026551778847
H          63.52758195862113   77.45925563247658   72.67114989979650
H          62.54374104969298   74.02472334532658   67.98492402686324
H          61.24220195346695   74.70898323134377   68.97839891045608
H          46.58432707928748   89.47318963555846   58.45472848525409
H          46.81095361207331   88.26366602695229   57.16483515728523
H          50.82996834293917   89.27980736796472   59.35310862669112
H          51.19886729957570   88.37832054266548   57.86255589376332
H          60.87663219632984   82.21542384892901   58.92562575886203
H          60.34850760394735   83.56566038602492   59.94814828654533
H          61.66532215955626   85.98846415515376   59.72386442866161
H          62.36721887895782   84.56912940942709   60.51425143792462
H          62.39807931521923   81.98639117875852   56.32028159549461
H          63.38519496965905   81.43571190671308   57.68456763050896
H          60.23016219945109   79.47625640467176   55.55992479068983
H          60.41401677221938   80.82153503244872   56.70160884466496
H          57.56563152279421   85.22132806642497   54.66253296228491
H          58.18464314753253   83.99789919590918   55.78714780461018
H          57.23489665886496   88.53375085889486   56.60032315607542
H          57.66256076442464   87.88266849051278   54.99817562201379
H          64.36859318844917   90.44206335093546   60.92206296592887
H          65.41365372978365   89.03587334218567   60.79913667343889
H          64.25497006939010   92.03283373230164   62.40066044945580
H          65.24599963752262   92.78522647474939   63.66324294791417
H          66.88485366857969   82.35628960669825   65.23456547503926
H          65.17236534893772   82.42756513661863   64.75542139517076
H          64.40830016630574   81.69408016589972   62.79739338033865
H          64.32055658485871   83.27103809287360   61.99959185837907
H          48.20820767243347   91.41831767483224   61.60378843596863
H          47.81808763002824   90.06569182162342   60.51415341066522
H          48.14222398301579   87.55930021614141   62.63418862063003
H          49.33420348996552   88.75984016884364   62.14168226865338
H          70.67049185336418   76.10361698413401   63.50278784716189
H          70.80036061250667   74.36506890565387   63.24190966280960
H          69.97541892466270   75.55719203582996   67.60160276177875
H          69.46038696014627   73.87056642712969   67.53674981832644
H          53.52316266539127   80.39476589033643   59.77574424843664
H          53.98430260084842   78.76931280193446   60.32074358195656
H          49.92114946070698   77.25958120077105   59.89474905863033
H          49.39046245820150   78.93583983540927   59.76613467403151
H          66.20735050553309   71.33052254892142   73.05888275727121
H          65.00222070036304   70.05601282689912   72.83595420986488
H          63.69196454947082   74.05503004961641   74.98991320612082
H          62.26956058410414   73.01270076805534   75.04304884903574
H          45.01457900987781   79.60587777861844   62.32310894823561
H          45.39127034698135   79.99709403818798   60.64094572210977
H          49.11277129556868   81.01801128974877   63.44442769770585
H          49.33099726287075   81.43880610899845   61.72991969634904
H          64.51487141573223   76.43534285076494   74.72978125944798
H          65.72540066428095   75.24904184109030   74.19683578817188
H          64.79943254609147   74.93062396662160   71.54904273980789
H          63.45312908073468   75.06293574087407   72.69445675965544
H          58.28332398711751   73.80045289184648   72.37116464840761
H          58.38857769952463   72.09770096440383   71.92247615307943
H          51.66401682396582   88.53427980499873   72.06653620781550
H          50.16590012213865   87.61108315395757   71.97576676920499
H          52.90597925923256   86.44104723191883   72.66929812619227
H          51.42947396110618   85.49184840468621   72.36846631074364
H          45.79554595367689   91.39739634589895   57.86156172733600
H          51.56745745202372   86.10981058476439   57.94908457974846
H          58.31621751611994   83.52464299210931   60.38760027292147
H          64.78279298922483   84.26168976481731   59.95218111002891
H          65.28205694460462   82.45512723085098   57.71234884416118
H          58.40596017199023   78.31067398216462   56.00584743375140
H          56.94330596514033   82.27065462320446   56.17167399271035
H          59.69454913365907   88.20292282803609   54.15360940778664
H          64.48934009909617   88.86855749585591   58.73788277146698
H          62.62585388198816   90.63178421091588   62.88790158797981
H          63.96309236796397   84.29421761107629   65.09791079533647
H          47.09397200468118   93.23260451703199   61.53695431823201
H          65.04185319690632   79.87962827461247   61.66093875625425
H          51.06893876846696   87.50184863426578   62.78480485635396
H          70.19961344894058   76.27599863415371   61.31771431713389
H          52.74871029123841   81.88586406980033   61.40984501096052
H          70.08833760067014   73.13840088381269   69.41033880962161
H          48.51155642175281   76.23084424095414   58.61200485881339
H          66.63852777730999   70.75548035603860   69.59434357298285
H          43.86240445699785   78.37798976885570   60.16555021807241
H          63.06408905324217   75.07116545925551   76.93318514631201
H          64.98155135937719   77.70043636565585   76.34223381115869
H          48.78269631967834   82.60684124200499   64.93415167296359
H          50.88615154737241   85.01662452016750   70.29039509704197
H          50.61554814440330   88.89446402208806   74.14501609586405
H          51.92268816976286   87.75682017000126   74.46383686864141
H          63.58740901776910   73.52351690585256   70.28258561618962
H          60.43391372487218   71.81615690292094   73.19838670850049
H          60.58194851660356   73.57184268215300   73.43885905283516
H          50.22513497570390   85.87323900769788   74.37843839765560
H          48.95915085995384   87.10311697433828   74.16987655930950
H          58.29330269791247   72.07533668652161   74.44981183058897
H          59.62081897808524   72.40406088044021   75.34430787120374
H          49.99997466210290   86.10944810377029   77.74070209701344
N          46.05470092762109   91.33141807399025   56.88326822775034
N          51.53195585715371   86.10586781644450   58.97768277480400
N          57.99094968719716   83.18650828809095   59.48667031441285
N          64.85756647801736   85.26772016462155   60.06810282727823
N          65.43600514742332   82.40660444578900   56.71194871534209
N          58.49709306367412   78.41937943225015   57.01113542239322
N          56.08745162421555   82.66960123213157   55.80305106195126
N          59.93948830824471   88.91052085566818   54.84067160602839
N          65.03848095408047   89.63508781553332   58.36999874773751
N          62.81760920534283   90.65581088569496   63.88665541264413
N          64.63179606853842   84.66694805599558   65.77352408173098
N          46.27426057280491   92.86804867293021   61.06304602169548
N          64.88173365372784   80.31213075271799   60.75601468840226
N          50.82880238389861   87.58420058315112   63.76351558216188
N          69.33226385042109   75.75425218299290   61.37043916512942
N          53.30525466921575   81.43105223691177   62.11742773983282
N          71.05698189612109   73.41647847929332   69.34103372402652
N          48.70456019006000   76.81274129588788   57.77490888978567
N          66.49596224513373   70.63963975255581   70.58820587918810
N          44.46868165585641   77.63163342991879   60.47689740713410
N          63.14558168784152   74.20722510907351   77.46540065065159
N          65.99110466254741   77.67098278662465   76.24875138796038
N          48.66583113511147   83.35630719045753   64.26740745676118
N          51.44268732438798   85.74681235303304   69.86830111225488
N          62.94462907365187   74.26354170632523   70.02060726542541
N          59.06276794236677   72.72814749930239   74.56022990864585
O          47.08185697482694   90.11979739866995   55.28918723472254
O          51.27578482078000   87.28258725598870   60.88293456276377
O          58.58025721800258   82.39050864962361   57.46004003339961
O          63.82365231261291   87.25496810416075   59.83532066259445
O          64.60472693281976   81.92106328363700   54.68606076976327
O          59.62001310445121   79.25832830337718   58.77139071789737
O          55.03008339112946   84.53331707583473   55.11326276312329
O          59.47169897592337   89.79362568606467   56.86917826279292
O          66.25089204032284   91.47069771579896   58.88440832741200
O          64.13638143831456   91.34500004222333   65.57249269265375
O          66.69243624425899   84.48017223200924   66.68097420447248
O          64.70314592222954   82.27711145176069   59.64092374036572
O          45.51494482757096   91.15639691254384   59.79555755234443
O          49.25895564239030   88.05912121748247   65.29699279548880
O          67.89683547645433   74.67889677151211   62.74464528634234
O          72.57119224696541   74.60708537430409   68.15175908537130
O          54.37839682860989   79.54512025628671   62.72639836656394
O          49.63436915779342   78.73046080744409   56.99597164129639
O          64.61590293383938   71.83364183068922   70.39030471002295
O          63.63915405332881   72.00763975594829   77.46338791258728
O          46.40896274618823   77.09688062663267   61.50038988111564
O          48.79567455428896   83.94817062857358   62.09742252953958
O          67.73778414651882   76.72564457555286   75.18687741402474
O          62.13903729880740   76.33572907659057   70.40175784592272
O          53.09056039043626   87.25087133319317   70.19681869090628
O          49.97710588685677   85.96587867547265   76.74401322066797
O          49.79008098186723   88.18364799869913   76.61532603223672
C          72.82797721977047   87.33094682932392   70.74054058338474
C          72.88759074802513   85.90409097039405   71.28733961633843
C          67.15443380119677   83.42950954231995   82.24765185901131
C          68.43292740058833   82.86879880700654   82.87204326924980
C          68.03474124731365   80.87761465022616   74.18491000211823
C          66.74558221369811   81.18503285949893   73.42774442408304
C          62.78015541222527   89.10882644124035   68.97449277952086
C          61.92476021143846   89.91518910685026   69.95215445471447
C          53.40802332760568   90.66427685562181   60.95178057302622
C          52.75502664984060   89.98078686128144   62.15380703791330
C          80.21008500470317   97.39180960916022   72.59544965362342
C          79.12249637056554   98.28759860156137   73.18339145000355
C          59.66138571447534   95.98981626102211   70.30891175560558
C          58.83531549744276   97.07486234305904   70.99962606852149
C          70.94964165473900   90.76481606427760   71.69569152372388
C          70.50342860483583   91.62152041455977   72.87793025022266
C          62.82445383386307  101.36704286380534   65.56743717509828
C          61.84414956506539  100.61580769351603   64.67207950974476
C          60.12030193061856   92.74258892407533   82.73869719379539
C          59.51800513209351   94.06373709118166   82.24636110235171
C          67.50297926272329   99.55793292354799   77.61819019951278
C          67.84138964356434  100.71881969270687   78.54905017387429
C          55.75155729620750  104.27953614911402   75.93559028613134
C          56.79369013904554  105.14147206574646   75.22449584301317
C          80.41155902831983   96.09161494152586   73.37962012522382
C          72.99616990144982   87.37052418123608   69.22300650886702
C          71.76926228578189   84.98154142240672   70.79919478146930
C          66.41380191357148   82.39286609174997   81.39908219850722
C          69.25972899854324   83.89565582411244   83.64814156503539
C          69.26712559834385   81.42583010400458   73.46318884856851
C          65.51597526952861   80.76245029539534   74.22946939855849
C          64.22361186563174   89.59124253107441   68.79933003113379
C          61.81465650480023   91.41029050277547   69.65832028520400
C          54.05547743115361   89.68827399062339   59.96621654260752
C          51.67981473877213   90.84353371037383   62.81528822177320
C          78.78559032804989   99.47456397947973   72.27768950420970
C          59.84575697521451   94.69419054597080   71.09793805845969
C          59.50988281353258   97.64298637750301   72.24995029609639
C          70.12613152123798   90.99216706167084   70.42588884091042
C          69.04370423399236   91.41078587272719   73.26657154662151
C          63.09622829083398  102.79539007933258   65.09890131533020
C          61.65450412484734   99.16401883776135   65.11148851030272
C          61.29672149602014   92.22120932718001   81.91364790299853
C          60.55664824571208   95.17238644291514   82.07550167661350
C          66.94659549656964   99.98367391210725   76.26246108570173
C          68.90279805760244  101.68425758707527   78.00744089655950
C          55.07280155383445  103.27352060783832   75.00606165374619
C          57.42978587062437  106.18685074685659   76.14135836257093
C          78.79804096955300   93.26989245328586   79.41741010080224
C          77.63154111010050   93.70481295342286   78.52692946654373
C          80.03094701260494   94.17382400997651   79.34154337493466
C          80.92268994125364   94.98295812018446   72.46289793261026
C          73.26632359968455   88.76408590055418   68.66996333908594
C          70.37825841683667   85.37753462515258   71.27760061118117
C          67.14714097815425   82.01499833194077   80.11165281149653
C          69.71929735187778   85.08988935401889   82.79514282158068
C          70.56460561346702   80.89503068100699   74.06338291487742
C          64.21286346307684   80.93398786328233   73.44395572851049
C          64.97553646129977   89.81085375216590   70.11148812760970
C          61.31685271076264   91.74788440541954   68.25413464544867
C          55.08115729387101   88.75301244480053   60.60372728647344
C          52.17319321315574   92.18634319509782   63.33500688474814
C          78.18824008909166   99.05339372186340   70.92972349709717
C          58.53281049749459   93.97939111214716   71.40313078489241
C          58.93531093390415   98.99960286340786   72.64782543784088
C          70.04107650738267   92.45939693660284   70.00916533040900
C          68.75802393168124   90.01006455611740   73.80821801714616
C          61.86842349263071  103.71194167921995   65.18264501500435
C          61.01139788641377   99.02785076941751   66.48966076015972
C          60.92119750230916   91.92261259940409   80.46411080868188
C          59.91925267428888   96.55189952837272   81.89312494429603
C          66.96838848115266   98.79341896515076   75.30882800893113
C          70.09649881104899  101.01659081074411   77.33374447418103
C          56.02948535037910  102.25233433818971   74.39095807097713
C          77.45367539888022   92.55027674547641   71.36236637480329
C          76.08894599777143   92.26989961443341   70.73452077178371
C          68.08010667192453   85.24846051939058   75.22412468585948
C          68.11361207791582   84.52441963332360   76.56640383086319
C          71.64671063243500   82.67227134062884   79.51159868882660
C          71.36664097400417   81.96781640310290   78.18367528872118
C          64.87155946567667   85.26879381442720   73.81372830586311
C          65.27120120687972   86.48250133877495   72.98133414439616
C          57.96732541601927   91.05349983889795   65.54923569178258
C          57.11767602714573   89.99589144821360   64.85981589654676
C          53.88055232203950   93.27453640390316   67.34255369992513
C          54.65438364200244   93.08798920480918   68.64667046692682
C          74.93022510951059   96.09724302228929   69.63144246025485
C          73.44341564408137   95.74593570082477   69.65741934186798
C          60.99008085901431  102.94697189423108   70.98460477667392
C          61.73399201313062  103.31370219366384   69.70051772583739
C          65.31166194867171   89.00264467796990   77.05181302309714
C          63.87371021509949   89.18563678608919   77.52592115494753
C          62.80025833643304   99.76354765345631   70.91013851941496
C          63.46265784022160   99.32285456135538   72.21199505521264
C          57.81694485485838   98.90235248251132   78.71594487346245
C          56.84262443032424   99.21852672430336   77.58159931943803
C          58.22239542327679  105.56999987506025   77.30040518881430
C          73.38521510066766   98.92946098218410   79.35162679226585
C          74.13014550847777   98.03173807250113   80.33868806414371
C          77.10092088019162   95.10837874624301   78.81817957599549
C          78.50953333802821   92.99318002733312   70.34217140638350
C          76.05016083755999   90.96821832826730   69.93887667364686
C          69.38559059488432   85.97241955661914   74.87694036442821
C          66.71679529898627   83.99544561293533   76.92073260705165
C          71.31493975361629   84.16987386601079   79.49347634519165
C          72.23660650949074   82.51132508583756   77.05065905700748
C          63.54245142236977   84.64502036763470   73.36250266614429
C          64.27033524631477   87.62641806997375   73.11300680302888
C          57.81554585284220   91.03885000888214   67.07542973511801
C          57.29211881322664   90.08901187559027   63.34739132270843
C          54.66006457906734   92.81476880050619   66.10624275525018
C          55.80549090262241   94.08364937656006   68.78762980435620
C          75.51662514642481   96.37433936369358   71.01986898161447
C          73.13838780144302   94.53997930412349   70.54673209377508
C          59.70753921709780  102.15717096609519   70.70076904816274
C          60.94726833076487  104.27471499117060   68.80241903555618
C          65.74028572451478   90.09297303754715   76.07251806046919
C          63.70223585370380   90.42901024923496   78.39045708755168
C          62.73417955538907   98.67206557437891   69.83920499332197
C          64.96296898369171   99.03420220677440   72.10107717370306
C          58.60958735995119   97.60666753746237   78.50957141664205
C          57.55114168777851   99.34128196065217   76.22832081086881
C          72.24661580879102   98.19775479078416   78.63161484726045
C          75.09283735376165   97.06245469950505   79.65923318425722
C          80.68794329916487   94.15236419781027   77.96520359267612
C          60.89081276299535  101.62226591132497   77.31203536277536
C          60.26803115898336  102.56060383003050   76.27417839773678
C          79.79438362649397   93.29144991151070   71.09107217515867
C          74.66596139002027   90.63241456520552   69.41231562908455
C          69.42083509418356   86.18229158261899   73.37147403346911
C          66.78573930527784   82.78513639535538   77.83181517705498
C          71.29769721424866   84.67548368426894   80.92603441060881
C          72.12140561295865   81.76049910229393   75.73952888264921
C          63.49414946408794   83.22837616480723   73.89154985910508
C          64.68758444880488   88.84915285857537   72.32531840290159
C          58.95315175331128   91.85575502316429   67.62580047516566
C          56.42274453777429   89.08030694275914   62.62364021736704
C          53.83851766686497   93.07064956629725   64.86005013453524
C          56.41689338256237   94.05777483082778   70.17664917938565
C          76.90408577747098   96.97039058321300   70.85289019771757
C          71.66100484951558   94.21353401681691   70.53819886504056
C          59.30556063210725  101.31490389611643   71.90652014126428
C          61.69289481027519  104.46685814534702   67.49460947913828
C          67.19890188516332   89.93938533581638   75.68819376327005
C          62.31420230489257   90.52339960641019   78.99778028067834
C          61.63433011945074   98.96172526679297   68.83049741094696
C          65.43860642140217   98.50889924621325   73.43554177211226
C          59.59840123622540   97.47600770953159   79.65544053783039
C          56.69512752674903  100.06206180539606   75.20759096119048
C          71.59293017072928   99.14078421298487   77.63879736510975
C          61.86841614529506  100.66122470241912   76.64959122294374
C          75.68597033620722   96.08078874289673   80.64789416835363
C          59.11711643118579  103.33436363602893   76.87495704915132
C          81.98030707207285   94.96120981954209   77.90435904723502
C          62.57239348165805   99.73814262640637   77.64124939567344
C          63.46688658840123   98.75125978178190   76.94392821480000
H          79.92090989279177   97.13453668638337   71.57776401504951
H          81.15140383530208   97.94178171313335   72.54261028605994
H          71.88800219674785   87.80779900228174   71.02355071417277
H          73.64055226725705   87.89851027920051   71.19702136044839
H          72.86602302201729   85.93646761074180   72.37660971524447
H          73.84650672674015   85.46586788577075   71.00256360293773
H          67.38340628783759   84.29122949389310   81.62329979106889
H          66.49016660027779   83.76765096229366   83.04600429227843
H          69.06849133057655   82.44185297098977   82.09516069964677
H          68.16672571433888   82.05788132672174   83.55369397301222
H          68.13109404139047   79.79492869302011   74.29046272783052
H          67.95570785842878   81.29786260282424   75.18912205505977
H          66.75967698478505   80.66074062959433   72.46773900284205
H          66.69942298323056   82.25771137463548   73.22150261527011
H          62.79599241870929   88.07318974022513   69.32087187789875
H          62.30464574181931   89.10972543629646   67.99211717182951
H          60.92275924916423   89.48475925357113   69.96442769595512
H          62.33413418552393   89.80759572561908   70.95724387451212
H          52.64873572407751   91.23194916870226   60.40695475779749
H          54.16271121602183   91.36867311253606   61.29750331685378
H          53.51591837296447   89.72516356887198   62.89138172727927
H          52.28312516234762   89.05833229574900   61.81614221610405
H          78.21648118991537   97.69491712904866   73.33167833937404
H          79.43796675630112   98.65889677862971   74.16126051727559
H          59.19032989505136   95.75199698575004   69.35193355772195
H          60.64653846682547   96.40018267457806   70.08035823937942
H          58.71044713999625   97.87756260169849   70.27201351166093
H          57.84329967909845   96.69821318702895   71.25310805016754
H          70.88203549938785   89.70950486615854   71.96690337157868
H          71.99909724580921   90.98034578024162   71.48326168012069
H          71.13607379102878   91.39986048426582   73.74062256306998
H          70.65579646029542   92.67485675177751   72.64203967873168
H          63.76897127257800  100.82176473985682   65.58971211422586
H          62.43183511692821  101.39577153499781   66.58469928805116
H          62.21421530680701  100.63118254170274   63.64307976574008
H          60.87815752913799  101.12021829080065   64.68921616987521
H          59.33227853245077   91.98647513348116   82.75925276291430
H          60.46801321380282   92.87818534761139   83.76555124093414
H          58.77988494193247   94.38595303332765   82.98500078253154
H          58.98350856544329   93.91574300007697   81.30826206166334
H          68.40043300940599   98.95665478700349   77.46155559310702
H          66.76112924449063   98.92192974769068   78.10546964065800
H          68.19596899562039  100.30442653667980   79.49296677217761
H          66.93586156452766  101.29063962611275   78.76132166699279
H          56.22345073064649  103.73668567441440   76.75257630474903
H          54.98360735771202  104.92864056274080   76.36347929564189
H          56.32102227766120  105.65619237283107   74.38345330814231
H          57.58582637999103  104.50772663783226   74.82361415038099
H          79.46008966731948   95.76857067126430   73.80814359454244
H          81.11255716895799   96.23145023663912   74.20284666347564
H          72.10155647035528   86.98454634148976   68.73437846656785
H          73.83633449854165   86.73406051007676   68.94760316719660
H          71.76264645600908   84.94575256973101   69.70920614560970
H          71.96956334695334   83.97205671237715   71.15826032033655
H          66.26718863842007   81.48603252241156   81.98910461908898
H          65.43051050687795   82.78097270103628   81.12769483338820
H          70.13862874508229   83.38929855581226   84.05160004496750
H          68.68469764650817   84.28028166339666   84.49178380973827
H          69.22907172243887   81.13645655287230   72.41132773974113
H          69.27248313951213   82.51751595308150   73.50115899634318
H          65.61275655901757   79.71452951048215   74.51416541937151
H          65.46642051656484   81.34667504169238   75.14959881338689
H          64.74755732524204   88.83606722956162   68.20927441333492
H          64.24558036643580   90.52155070056355   68.23269483099367
H          62.78956256809352   91.88040212775485   69.77756898688263
H          61.13965458796500   91.84622154865099   70.39771344730579
H          53.28795210489789   89.06856345541091   59.50218662840312
H          54.54467469134928   90.26691422508277   59.17874198745520
H          50.88711412893567   91.04809184517215   62.09215438640893
H          51.23828366874325   90.28841210719577   63.64459888432719
H          79.68519357961208  100.06267197623026   72.08978595962091
H          78.06151625347717  100.11484576428963   72.78643603976234
H          60.47922103261978   94.02899729763864   70.50736264898299
H          60.35320350937306   94.87987735736272   72.04358219069042
H          60.57818841511663   97.76049395139381   72.06220083866432
H          59.39169142586001   96.95298253368017   73.08573252149927
H          69.11152140068765   90.61658019534698   70.55993146359420
H          70.59002203787769   90.41827763746595   69.61950922454415
H          68.79637334854091   92.12685449869670   74.05049053932053
H          68.38966152677067   91.61063714803480   72.41814778874725
H          63.44889338163645  102.78821085035665   64.06549758985641
H          63.88395898438786  103.22694730873567   65.71858264152912
H          61.02239910076054   98.64680697468259   64.38666611287046
H          62.62351824976119   98.66098590092930   65.12392603547406
H          62.09546913827952   92.96446878604561   81.91784826598871
H          61.68971529068448   91.31202501671301   82.37361384288251
H          61.19245865266950   95.21104486418292   82.96320197041922
H          61.18963225898553   94.97171962626693   81.21050980850539
H          65.92182229663275  100.34038414372962   76.38118729471036
H          67.53409008159404  100.78840751763518   75.82328970164129
H          68.45584826417077  102.35792018101264   77.27419599146273
H          69.25960547737751  102.29413212953247   78.83975764215410
H          54.58443409268225  103.80817878626316   74.18669377688767
H          54.29933986307697  102.74422513438765   75.56757125527520
H          56.65711629533087  106.83390153344340   76.56088676121104
H          58.10633247802325  106.80857210446341   75.54951975270795
H          79.08607257427998   92.26100539318060   79.11519733592345
H          78.47043538272000   93.20486646425941   80.45822772879744
H          76.81562228244221   92.98667930894572   78.63485849520478
H          77.95008977666077   93.67859282522979   77.48433910725939
H          80.75424248375131   93.83069086284554   80.08615674533435
H          79.76787953080610   95.19811052066446   79.61164364420570
H          81.75706115421239   95.35434463793587   71.85570097434683
H          81.28667192730569   94.13086373988212   73.04352957183306
H          73.37936926817284   88.69608623149720   67.58151689909511
H          72.44110639858771   89.44533475485181   68.89632935612569
H          69.64908721324954   84.65865409522873   70.87981416283169
H          70.09649657601855   86.37212927092497   70.92228739224477
H          68.19744101770880   81.77946542577359   80.31942334155644
H          66.68593891696553   81.13006459443690   79.66638488600232
H          68.92771482471582   85.84372997989713   82.74403511370278
H          70.59793728824677   85.54089848960106   83.25614121942158
H          70.48508855852621   79.81303227314208   74.21658834022820
H          71.41237600433705   81.08051892821106   73.40039691991731
H          64.22359461234710   80.31882674165246   72.54196589156901
H          63.36875922741510   80.63464674129672   74.06853048161581
H          66.03997793906721   89.96734030144765   69.90465858535987
H          64.61645501235351   90.70419357862106   70.62683306311438
H          62.05159089043869   91.42562755132388   67.50873888361382
H          61.18179125776860   92.82928843036503   68.16550581020515
H          54.59006714280640   88.02642804244067   61.25500868643967
H          55.60123060045926   88.20266332141765   59.80910909985516
H          51.30770048240002   92.78887662837111   63.63441230172588
H          52.69317569354804   92.74171473336654   62.54921622391621
H          77.94149155435521   99.94003231672701   70.34116505480540
H          78.89119574105577   98.45055963640390   70.35409340022117
H          58.74430176943491   92.99748273237036   71.83801079921818
H          57.94028358316218   94.54385688094504   72.12356974191641
H          57.84809450175563   98.93473146435444   72.77082156459578
H          59.35345515577237   99.32993317642674   73.60421020176801
H          69.53504985015610   92.53391696050477   69.04330406521262
H          69.45110388953046   93.03942845917003   70.72065103077483
H          69.45499497623827   89.77350971229191   74.61536780026260
H          68.83215100025417   89.24689059037392   73.03168429069432
H          61.11502115022834  103.41228803484906   64.45329906928590
H          62.18241238566691  104.73746945288578   64.96469189284618
H          60.37314491443568   98.13543961497543   66.51174437748779
H          60.37410980621158   99.89060525998343   66.71420045221438
H          60.39407358420083   92.77749758137946   80.03170386073062
H          60.28063367215092   91.04035027731274   80.40086897392591
H          60.70001595432704   97.31710229961497   81.87416285033449
H          59.24159499863082   96.75609239907253   82.72956899035748
H          68.00008350608744   98.44108741365125   75.19774585825336
H          66.36004066870726   97.97847514580782   75.70789893224770
H          69.80235631625720  100.55101386701267   76.38831849804538
H          70.84433114734269  101.78303821401622   77.09080345275095
H          55.48301740992770  101.60199776303064   73.70437904628611
H          56.81671341314522  102.75944944948861   73.82537092814550
H          77.34422853660104   93.34795261543088   72.10159022591877
H          77.80420000388376   91.65850514122596   71.88730910924103
H          75.82101304723238   93.09883542596029   70.07912695922042
H          75.34086308955203   92.21194359502107   71.52999321301587
H          67.27030974201563   85.97740771432203   75.22526512544040
H          67.86679169272560   84.51400028703696   74.44290137550044
H          68.82063233485108   83.69342521564398   76.50243480968250
H          68.45230850363822   85.19549243026124   77.35499713085230
H          71.04836815498930   82.18806048999798   80.28807069101906
H          72.69581154173315   82.54467954188324   79.77755790558577
H          70.30426872603053   82.07985372604388   77.95106144252044
H          71.57199894677014   80.90260397681443   78.30972905898791
H          64.79827889301414   85.53560356930079   74.86953928400352
H          65.65979576247237   84.51945227593268   73.71605888044596
H          65.33385920006744   86.18103247694978   71.93866459707057
H          66.26209003796203   86.82639639593538   73.28292626381419
H          59.01611553634167   90.87785030630754   65.29335656179056
H          57.70325279946902   92.04226162806742   65.16844874027184
H          57.42206611416455   89.00421496886553   65.19840741152744
H          56.06460831335976   90.12155270093736   65.11377654817562
H          53.61837849748052   94.32956613746214   67.23789952297301
H          52.95380179259885   92.70099099012202   67.39407866670977
H          53.97291701795072   93.22876319853167   69.48833135911050
H          55.04279929826150   92.06788516474566   68.69812325609962
H          75.07152804914371   96.98622922144563   69.01442611038397
H          75.49181614641500   95.28310152014923   69.16978228886947
H          73.11317148580180   95.52380594909664   68.63899875758021
H          72.86996720872226   96.60180479319546   70.01162774249335
H          61.65104506022155  102.33796739334923   71.60448061034384
H          60.74128519650580  103.84091663249031   71.55680979421965
H          61.93512325356848  102.39565931814815   69.14253161557707
H          62.69797716228105  103.76739818230895   69.94926053632656
H          65.41298012433388   88.03084276908523   76.56044557576197
H          65.98995561912666   89.01348997257384   77.90748423443758
H          63.20717191474424   89.24853715460343   76.66432849315369
H          63.57077809747787   88.31717455130371   78.11108525710745
H          61.77820748743768  100.05986885895128   71.14707813567382
H          63.31941554716325  100.63399231646883   70.50686885895016
H          63.31350580498454  100.10456387269970   72.96141302606623
H          62.97143862355209   98.42211267318760   72.58557155972777
H          58.52155052525848   99.73015517931933   78.81649959886310
H          57.25946706915915   98.83449079199941   79.65292701379654
H          56.07085960325664   98.44837482243317   77.52434110635026
H          56.35475926579672  100.16675126000878   77.81485637279039
H          74.08585898072027   99.33250758865645   78.61582751629730
H          72.95450036991237   99.77096216500519   79.89698390379371
H          57.55971379352243  105.00156374778766   77.95500247918538
H          58.69064476683167  106.36895313319448   77.88333528409623
H          73.40802350531759   97.46111535174914   80.92231796749151
H          74.69776680334880   98.64969813730509   81.03614958620568
H          76.29931641095345   95.33346112531676   78.11280801484845
H          77.89738426744128   95.84783015787923   78.66772700261382
H          78.16749731532501   93.89158710231440   69.82906183188642
H          78.69561655948506   92.20193362935167   69.61637558081706
H          76.40479569881992   90.13576643868377   70.54807126089129
H          76.70621230289731   91.04595332409575   69.06853779876901
H          70.24469810980608   85.38070237278069   75.19110458798431
H          69.39813880579166   86.93916649002361   75.38099318130800
H          66.20130749415461   83.68021759308100   76.01236926627595
H          66.13666486432780   84.78245557948665   77.40154756311934
H          70.34320996130570   84.33489991363714   79.02668474716523
H          72.07781051286041   84.71834332020862   78.94269788781827
H          71.96770485191281   83.54632320791347   76.82993383481868
H          73.28376273999609   82.48204112025897   77.35444703973396
H          63.48382902534828   84.64746630465240   72.27359503040503
H          62.70319864706884   85.20859946985078   73.76662435015677
H          63.29411328041057   87.30817485377658   72.74056092012331
H          64.16494163897862   87.91320823790602   74.16108406111121
H          56.86073589582806   91.47771227621729   67.35621713807858
H          57.87163977550091   90.02192478655077   67.45840896214258
H          57.04911788439232   91.09059351132861   62.99306807848898
H          58.33763804836060   89.89597204656305   63.08994217603053
H          55.59154126665258   93.37459654129009   66.02383560622502
H          54.87020833633224   91.75027479914888   66.18630933219305
H          56.57904207580383   93.89276630065538   68.04622764993611
H          55.41151239115467   95.09254975960732   68.63570744657649
H          74.87835613363714   97.06456098031657   71.56904045863068
H          75.60568751326551   95.43953840149405   71.57532250873612
H          73.70382640479060   93.67474184790444   70.20698027373778
H          73.41472501730161   94.77110525379865   71.57662297193146
H          58.89372617331151  102.85061106765758   70.49070441905256
H          59.84973459579600  101.51187985318110   69.83369120148960
H          59.96188694544567  103.86101958089309   68.59744296498467
H          60.84136565262694  105.24129617023954   69.29804071536481
H          65.63522580127666   91.07041831976655   76.54814526977282
H          65.12088867988344   90.07469758979131   75.17813945241483
H          64.42465917572406   90.40901368601824   79.20792867292553
H          63.88215607286737   91.33599734951511   77.81243445485654
H          62.48360745417985   97.72268565833696   70.32106554818698
H          63.68395886158012   98.55190999182945   69.32220886924897
H          65.13924322514612   98.26096530452294   71.35114810020316
H          65.52504722375544   99.92396317695354   71.82012414376960
H          59.17245275463114   97.66687935004170   77.57854820913873
H          57.94137299342844   96.74644163284216   78.48136505136031
H          58.47372348388757   99.90576521252983   76.36216057568899
H          57.78910481773604   98.35267983000639   75.83370521973417
H          71.51861060216720   97.85697603185699   79.36697336225787
H          72.62795552265763   97.33560548957412   78.08256083967362
H          74.56700106598244   96.49179835364839   78.89160958882364
H          75.90524093614519   97.60800902875400   79.17378109172877
H          80.01093146400413   94.54938078138395   77.20842861269853
H          80.93271366286356   93.12319239268673   77.69522101307730
H          61.40435350207328  102.21527034388996   78.07195595697740
H          60.10262088894292  101.05879149777972   77.81349928806098
H          59.87531363939854  101.98383302331180   75.43120458225255
H          61.01550918280898  103.25392385964656   75.89535529990110
H          79.15218516355505   95.19901189658425   71.31554002502972
H          75.19795397789589   88.67647108846087   69.52470342160338
H          70.95479905971827   84.83926858849767   73.25032227508727
H          67.26632016103056   84.00979177294232   79.38438873374805
H          69.28850150588333   84.60448898750002   80.80799209477092
H          70.08699331999934   81.79982379586157   75.89787534219049
H          64.38175923543963   82.61041745564634   72.17137375867490
H          64.78576307644481   87.76474669493498   70.59473976630076
H          59.94942385805963   90.15126946461446   68.01788503109088
H          56.32148777073719   90.39588483874019   61.08512382628509
H          53.11694446652330   91.16930799286143   64.96350082418543
H          76.18277870981488   98.77889658214758   71.46227396951333
H          58.22701987600914   93.64443756598972   69.34629173664673
H          72.11143086828467   92.47275396902123   69.59635827624176
H          59.61775361183421   99.65787765747856   70.75887989180526
H          66.64962586536174   90.05992074835407   73.73421213185469
H          60.46529821849524  103.07850422030216   66.64345840798234
H          62.86038447840610   92.32778277706299   79.75012023241914
H          62.96582881153390   98.75800005541063   67.28861868683910
H          58.38887139415957   96.07534531864412   80.51013566129892
H          66.85026166191777   99.99251359924367   73.60582811944619
H          70.43943092550749   99.93370071282575   79.13622862428852
H          57.19636257763701  101.81480111066828   76.10301390645044
H          60.02444415234955  105.06472507712654   76.32591844210998
H          61.33059547393395  100.05524726776119   75.91879115508664
H          62.62258093083775  101.23499485441002   76.10352594256598
H          77.01616109143326   94.60157469388147   80.84638486678345
H          81.77451746336109   96.01857239489298   78.10312963058853
H          82.66977283888633   94.60128258022867   78.68809787979536
H          61.84308174278030   99.17161117226703   78.23420900744279
H          63.17460556939137  100.30398717459171   78.35475546759139
H          82.71904220274111   93.87166598384441   76.37027767859756
H          83.41918846791282   95.34457617047133   76.50867579533164
H          63.85565640998627   98.07006833592828   75.15331175021788
N          79.84712304669775   94.51759011336380   71.61125918767947
N          74.46976733122185   89.32719795024050   69.24096729701390
N          70.28529797897072   85.38799305816021   72.72287802979197
N          67.06975792602421   83.05288126253888   79.10832825718302
N          70.06579444398241   84.71027328165584   81.44710821567035
N          70.86767291664870   81.54836684417347   75.31553765660055
N          63.99502237464808   82.30972421537849   73.05124921228769
N          64.78714297379452   88.69315415932547   71.01008657999476
N          60.04164410388971   91.15288687705893   67.93050892420153
N          56.03209696199246   89.47857947707642   61.41035022760355
N          53.07213034120162   92.05501079989135   64.46452069237819
N          76.98464569479792   98.27593425505648   71.09779307457974
N          57.72997196491812   93.83891185530514   70.20868525655763
N          71.35584786864915   93.05632207428307   69.93868947773387
N          59.25457124361271  100.00020189040714   71.64663282958330
N          67.42945412205371   89.96542705501129   74.37332764331957
N          61.25630261050821  103.70005655765178   66.49316902816771
N          62.10740765248469   91.65186757141673   79.68089935528401
N          61.99559259206917   98.90367428463537   67.54976798599863
N          59.18320370367061   96.68965514885396   80.65879998101899
N          66.45297896868320   99.14474330548511   74.00561425146263
N          70.71939362546019  100.00135021376616   78.16052776840726
N          56.65002200497812  101.38170636224103   75.35994357330854
N          59.25089645688848  104.66601697865279   76.84330155054094
N          76.57889587751934   95.20295491473645   80.16097133839594
N          82.53289691794498   94.85301680569371   76.56243781824767
O          80.66896868673803   92.44757354422255   71.26508844299339
O          73.80993577858180   91.48099714246476   69.14889928891928
O          68.67902305796815   86.96308599967806   72.79184994025731
O          66.61075268148024   81.65210965721637   77.39826234782194
O          72.31658657326038   84.96010154482595   81.53814455989230
O          73.09518512362166   81.40521988714488   75.09308855870528
O          63.07408813990686   82.94327058639263   75.00335221542616
O          64.87194405481573   89.93494166983700   72.88344963343405
O          58.91467864095370   93.08975339316829   67.68049993374373
O          56.12353516398475   87.99161920919406   63.10433411580409
O          53.85907971426514   94.15600893856781   64.28037170925505
O          55.74651433260996   94.25472881462208   71.18764719782480
O          77.85554178298285   96.27837788173856   70.49703408824881
O          70.81726848632840   94.95449246630801   71.03399809160615
O          59.03981217686367  101.80128493963400   72.99532211106296
O          62.63981239145772  105.24043146713736   67.38051313416388
O          68.08484738519365   89.82338335803621   76.52732614128692
O          61.46535216782753   89.65159473508902   78.85198005623444
O          60.47706082791389   99.20633586380887   69.17052790630707
O          64.88153219411187   97.54138795606906   73.97299006230665
O          60.65025834271756   98.10013858183777   79.67259547043501
O          56.08357452402985   99.45733784351927   74.32231146224753
O          71.88131266318487   99.13086583780901   76.44345672096647
O          75.37115445241079   96.05043909851415   81.82875960333779
O          58.14543096125308  102.76752777812533   77.36597879893996
O          63.21833982548813   98.65150491070172   75.65495459988259
O          64.33228626542427   98.10178923005505   77.50040212261707
C          45.51959675524228   99.71924652043718   67.51655723829543
C          43.99849154680625   99.88809825621240   67.49724802168291
C          51.79378569779083  100.78874091131129   72.50170904542674
C          52.71758654749917  100.09473483045618   73.50271828812734
C          60.86682904173668   94.68774413212061   77.84020316929055
C          61.60086463448586   95.76346223346067   77.03772478533385
C          72.45660518795776   97.88125970934843   83.58256811837991
C          73.69889253080864   97.53126520973976   84.40318305830434
C          78.51336722485067   90.17479754672230   76.34361659595058
C          78.62990292333345   90.94352588081959   75.02831409688341
C          51.40954745006581   93.52967726660908   56.95874420890246
C          50.47601160061795   93.79617035737314   55.77227399946364
C          83.25373760481455   85.85579372668536   63.63952876867341
C          82.21158826826542   85.15728909662313   62.76490117535504
C          46.43325053118613   81.60286391046644   56.11353030918433
C          46.74835167333126   80.56115517274829   57.17878966259952
C          72.36963457104157   84.48759103899857   65.60121823765151
C          71.03836267529203   83.90336270283986   65.12546382150607
C          55.21541449848615   75.79335615204471   52.19822904555523
C          55.10752594250355   76.21113795542774   53.66518245519325
C          76.56947933869752   80.18419358427977   75.60612384391953
C          76.27880765089364   79.53897157956806   76.96143521354388
C          62.08459500270538   75.93582768875832   61.76610294069958
C          63.49103074187779   76.42080241049543   62.12761667703001
C          50.80635361007707   92.71596086039219   58.10606593125192
C          46.24743019244797  100.70856288357341   66.60957163768960
C          43.50003156373943  101.29147071583056   67.84659900348102
C          51.42789868919922  102.21372341013215   72.91076333200328
C          52.00795517169723   99.66870563734906   74.78554730536381
C          60.30331529096863   93.54481718618983   76.99934255427939
C          62.71971466007194   95.22974749326755   76.14045627440346
C          71.24469093928137   98.26654635847295   84.42700585443957
C          73.50621833224530   96.39788180982613   85.41473046231620
C          77.22951839431889   89.35235122702878   76.40427849364559
C          79.94105510610495   91.72180637732917   74.92498567338224
C          49.71471129986185   92.58751969248704   55.22746104911890
C          82.89904247239356   85.92623295506475   65.12459291717337
C          82.21181111488229   83.63941528372344   62.92971443383269
C          45.38026924464358   82.61177987466591   56.55576487575381
C          47.31627790782255   81.12646016582697   58.48050383038900
C          72.32406187227303   85.99285925393339   65.86767455453658
C          69.99267676962036   83.82620210305920   66.24766632835106
C          54.33475848045227   76.57085868203286   51.21596729731790
C          53.73191805516390   75.98481860582685   54.29680430252729
C          76.47056963439752   81.70590304433088   75.66149609932532
C          77.45040312898978   79.64120423390146   77.93510597962380
C          61.86981055708574   75.77616236056328   60.26000114037913
C          64.62572745952367   75.60712295267822   61.50538122483881
C          73.76384503272146   87.69493204556733   83.84653486959989
C          73.66482579045591   87.00349112742853   85.20955525430770
C          72.44741443905549   88.18499533592104   83.24084340951904
C          49.55011017807713   93.32564910806839   58.73232965714094
C          47.71360233652478  100.32697736515118   66.38745804443246
C          43.69176137828264  101.65315227403900   69.31830435252539
C          50.71008990878614  102.96510101523239   71.78429004703666
C          52.99170811474936   99.26520910189588   75.88717597052778
C          59.25190741144020   93.99425407008066   75.98817360656437
C          63.80805979820563   94.47885673738108   76.90285992572205
C          70.13265662340009   98.86579530138259   83.57087975706723
C          73.02603586391029   95.09019034314748   84.79277263612704
C          77.16175452809992   88.44381740280467   77.62898590974032
C          81.13916350701038   90.83141907300865   74.59488871445542
C          50.59896735453538   91.47450604560997   54.67148760863613
C          81.72654193484426   86.86586178618593   65.40601637965247
C          81.08432661094214   82.98237734298770   62.13123168990641
C          45.20270458877098   83.69845936965756   55.50751580486411
C          48.46934462618738   82.11150332021856   58.29114815012026
C          72.44461335727128   86.84150325421007   64.60015073764727
C          69.76945804183893   82.40137642157055   66.75246835345504
C          54.56995711332080   78.08531742244350   51.24288354874324
C          53.49397527320683   74.51525903442133   54.65426344672213
C          76.62156705797365   82.35724208705963   74.29409834999171
C          77.06755236180724   79.13520718568380   79.32618356613443
C          60.42351604311892   75.45111989902163   59.89203502124905
C          48.52668338231286   96.87374706704179   61.21931955824915
C          48.61206293395612   98.17892589685383   62.01221965760876
C          45.25032416838749  100.10445050178399   72.00375371002588
C          46.59092004789845  100.69430462823686   72.44396321389875
C          54.55776861443614   94.55314300570521   75.57910182634869
C          55.76527305478186   93.62695012801247   75.66715140207657
C          66.69891872078982   96.02974428898551   79.84806684353819
C          67.36634217437974   97.08961607105067   80.72256600254302
C          75.06482955652002   91.32274326373938   82.40721503274045
C          76.07030146780997   90.83476378874295   81.36916579043680
C          79.91841982423648   89.10024640972277   70.50743417968091
C          80.00116706369498   88.61392388682181   69.06045707263419
C          49.45215527233184   87.29120503061995   53.62510456004291
C          48.32779248630568   86.28162076867643   53.83638146639687
C          78.08813705491212   85.40830527441017   63.81994532107145
C          76.92297802417984   85.96002752516441   64.63991073384238
C          50.30567412467517   81.89884502960187   53.83633601447210
C          51.42811764236991   81.57233680817876   52.85489848463538
C          72.38088464722451   80.52936288265643   70.58944279822857
C          73.76270970172563   80.71866234813017   71.22482121746890
C          57.59726040149403   73.54767794350077   56.56834426973834
C          58.53903893885337   73.21279561707546   57.72652350685049
C          64.61124170290728   74.12506893957247   61.89364833053250
C          75.13354002183904   81.09760065058914   82.73081166387105
C          74.75696925993239   82.36238851387117   83.50292387060517
C          72.63028477428519   85.88114767819687   85.30093965584625
C          49.76348603205994   95.98651551239691   61.40915683341017
C          48.15540553327215   98.00464717097510   63.45591002726376
C          44.09591607969922  101.09710871964245   72.17775093007866
C          47.18426872519979  101.64734535965782   71.40322765361805
C          54.92648476508246   96.03402502013493   75.51942916537837
C          56.70439846863544   93.76734292922545   74.46708086955532
C          65.19418211307458   95.90479477706796   80.11867530533280
C          68.87021530167806   97.18867311131025   80.43213425546800
C          75.30547332230951   92.74912904677473   82.88774933966126
C          75.73175828028917   89.38978085769564   80.99801892920908
C          81.29692591672979   89.23248340159839   71.16598460448253
C          80.41315635312912   87.13981585579252   68.95093752073397
C          48.98060976928036   88.55668717651795   52.89876297240684
C          47.46590856593028   86.68053740758745   55.03738180903244
C          77.63597787503066   84.33571458139841   62.82407234863752
C          76.15901788683433   87.07418869784833   63.91369836818785
C          50.73438152833896   81.74037398969293   55.29547196245420
C          51.89207484986754   80.12205434707933   52.97337605950029
C          72.33867919372314   80.95714307874221   69.12195032362835
C          74.04052911968805   82.19149809006664   71.53587576969626
C          56.21402233426283   72.91153040787707   56.72822170468071
C          58.06026909361186   73.83059714925957   59.04411632176071
C          74.50246713262273   81.04111265095126   81.33673912740424
C          73.24943623585651   82.48816309964130   83.74936554858850
C          71.65056438492020   89.14238052774014   84.12823955479280
C          65.67611197000484   74.73378602506908   66.09872989851988
C          65.01257106918101   73.44977277696246   65.59691117743870
C          49.49786700659228   94.62625376278407   60.80349522244392
C          48.25755825793166   99.30449697531830   64.24167259474383
C          42.85839364594214  100.61912597847488   71.44305474760614
C          48.34355375101671  102.42974647910557   72.00639660730700
C          53.75306496716611   96.92848998788240   75.89675557843184
C          57.74654296297115   92.67132878025814   74.45782926614937
C          64.58574881772135   94.87213342577969   79.19255402797133
C          69.48881397168542   98.28280466996118   81.28356129252859
C          74.19739442114765   93.17018435775570   83.84929196789673
C          76.69281245687974   88.75577289688825   80.01388949473514
C          81.17387424716718   89.29884707633830   72.67138622080992
C          80.42962235793310   86.71735364280887   67.49396684091425
C          50.02790648912033   89.63576588176259   53.11572910837671
C          46.20164243034503   85.86492833713521   55.06624409964557
C          78.79931311420022   83.86157080545205   61.97365810826116
C          74.84827504880444   87.32832979947949   64.63079434473612
C          49.73546121680602   82.39593135971528   56.22932370131429
C          52.83750140796942   79.72775416439929   51.85462471051613
C          70.95932971872034   81.38456641602859   68.65113316579462
C          75.39876180091406   82.42521023332263   72.17456580628790
C          55.36539345683202   73.18572111400202   55.49620505319271
C          58.93911433328135   73.43904505911576   60.20802126126190
C          75.06572846228572   79.85907879114086   80.56464799168957
C          66.66450445873346   74.48821834085265   67.23744708218631
C          72.98985607608316   83.51197786919788   84.84263133099951
C          64.26734705898289   73.66628378268493   64.28404556113401
C          70.25229058616206   89.40503012772024   83.56500580497381
C          66.01500259613833   74.18296939356547   68.58601909689044
C          67.02181802475899   73.67881275940599   69.58688448570808
H          52.29815565638543   93.00169169830167   56.60564449426877
H          51.72567014409371   94.50121615811234   57.34076429577124
H          45.75061933927189   98.70658212337101   67.18136502685182
H          45.90159945144199   99.82095326462414   68.53414243660001
H          43.55211546865652   99.17447186470622   68.19403995382905
H          43.63776204299302   99.64068848344881   66.49646806825831
H          50.87642436388018  100.20983042352708   72.38325420185087
H          52.29215776762903  100.82416075651987   71.52976319510621
H          53.15786594508537   99.21092078814657   73.03683668348279
H          53.53483560717249  100.76943942420375   73.75683546980525
H          60.05238088752206   95.15774120447549   78.39271692012819
H          61.55758373527389   94.26968023732515   78.57392394808340
H          60.89273012019179   96.30266799890991   76.40744004668859
H          62.00957825524684   96.48421145712815   77.74827075649924
H          72.70847032342608   98.72451095018648   82.93582016595789
H          72.18633464406079   97.04341839787149   82.93979857273796
H          74.02232024079827   98.41966787554102   84.95169671852958
H          74.49704705128407   97.26550603098070   83.70899536110865
H          78.53503942454104   90.87800769337107   77.17812488232944
H          79.36575821420023   89.50126821635365   76.44772639240412
H          77.78941098714752   91.63650718278873   74.94574042790300
H          78.56191597618681   90.24549277159225   74.19049304174222
H          51.07573263814269   94.22437271844872   54.96650670605268
H          49.74746865881013   94.55553020483295   56.06382350192484
H          84.21023237028369   85.33912458029737   63.54301662179378
H          83.39769266838317   86.87474184029115   63.27311887993910
H          81.21755370748868   85.54183902037816   62.99399491659490
H          82.41816128453978   85.39036431980750   61.71784938117509
H          46.09187831137216   81.08503446073580   55.21688293855502
H          47.34662662342108   82.12257982256433   55.83796805182580
H          45.83833970576928   80.01032588917907   57.42816243663013
H          47.47051218257845   79.86430590800035   56.75146638913457
H          73.14262811258536   84.28151117600575   64.85875305881061
H          72.66365326379496   83.97841873078720   66.52043332095235
H          70.65034354218469   84.48977423565675   64.29239190424063
H          71.22488655126170   82.89771234531484   64.74395973825226
H          54.98237411393293   74.73140901315000   52.11108432178087
H          56.25802277186249   75.91945871447862   51.89700193354044
H          55.40924373164670   77.25430329036939   53.77005971318198
H          55.83601050861442   75.62164901820049   54.22457089862714
H          75.85149347867991   79.81548985843864   74.87258679783869
H          77.56941696732552   79.90106352281451   75.27036949605892
H          75.40143610658531   80.01411012468985   77.40408685821345
H          76.04202573872841   78.48344967470361   76.82170652098175
H          61.90564226721855   74.99641383507779   62.29100315979726
H          61.36143159540267   76.65934063810553   62.14706615967818
H          63.59654432427767   76.38139376846298   63.21282374126668
H          63.60762151535140   77.46353093760965   61.82514275204119
H          50.56084888641907   91.71557479208225   57.74804322633747
H          51.56206381870798   92.60620083630249   58.88820564197781
H          45.74932297722012  100.75296993066102   65.63863511371274
H          46.22426377433818  101.70600113739259   67.05008578242558
H          44.01137493568998  102.03017917118892   67.23070757892145
H          42.43468404779942  101.34822316709493   67.62254190585391
H          50.77120052588752  102.20184246556957   73.78020775512763
H          52.33138311531248  102.76645846522725   73.17464299888115
H          51.40381013676976  100.49247392352439   75.16684335812052
H          51.34409170915641   98.82935308853449   74.57365925890639
H          59.85000886686687   92.80543758668198   77.66269883966868
H          61.11372618368031   93.05721603505449   76.45737801636481
H          63.18056858507553   96.06655000288745   75.61514167433114
H          62.30445550241017   94.56691924613634   75.38123879624753
H          70.85624321095611   97.38852321905088   84.94609973082746
H          71.53456578697418   99.00406826481716   85.17813369467015
H          74.45672896406907   96.21833971989328   85.92164661249991
H          72.78175900476049   96.70235685773535   86.17203024252723
H          76.36596492824530   90.02011064981788   76.41337053168915
H          77.16553320383137   88.73938977943700   75.50515864516341
H          79.85596703279134   92.48122034304437   74.14561943388178
H          80.13884986055039   92.23217391674291   75.86601203485155
H          49.05553199448251   92.92903441252760   54.42607513649160
H          49.08184177975229   92.16377499923638   56.01000786060637
H          82.66411870284941   84.93326127569748   65.50805700481867
H          83.78165956049705   86.28445475030279   65.65690807521126
H          83.16763707312853   83.23447269588316   62.59233447474909
H          82.08894635071087   83.37927769557304   63.98224640539980
H          44.42656484706976   82.10433124601232   56.70779400947743
H          45.66823162519266   83.06808719270677   57.50332359990519
H          47.65779728025502   80.28033340824386   59.07607592306712
H          46.53880542908268   81.63752336571933   59.04694170627810
H          73.15166288137243   86.27193864090559   66.51945800550374
H          71.39502361954320   86.25584138438131   66.37268328212879
H          69.02544248086031   84.19636748971415   65.90802747213760
H          70.30439480101315   84.44581819501204   67.09065956049915
H          53.27817524785672   76.37327907453364   51.40493261308588
H          54.55345288073806   76.20433009669276   50.21161423772898
H          52.93243540680653   76.30583495608980   53.62693808509641
H          53.65759766525719   76.56723204028664   55.21887382055330
H          77.23702448187451   82.10970555891011   76.32378086346128
H          75.49123518366223   81.97242372878384   76.06329855748514
H          77.78141499304729   80.67686970807250   78.02715751804534
H          78.28860360830878   79.05232937510097   77.55742727384127
H          62.51004812011495   74.98365243982620   59.87030348750359
H          62.13670001989352   76.71014204057104   59.76146915393030
H          64.59129019045939   75.68774120901536   60.41759228990243
H          65.57477978020903   76.02783044671369   61.84372747257222
H          74.21562240494215   87.00374047155982   83.13084164284484
H          74.43445380791043   88.54839449682049   83.96556703576016
H          74.64680070752331   86.59124584651100   85.45036455326785
H          73.42269849502465   87.74252765599545   85.97475415817310
H          72.68967645472608   88.68163672868054   82.29710839296570
H          71.82895743828773   87.32022916063771   82.99327195097956
H          49.09221827831028   92.60464985997201   59.41614034061784
H          48.82773759424734   93.57180442136327   57.94829741485566
H          48.20412365041222  100.13602453638174   67.34613700894623
H          48.22141663420830  101.15109905163987   65.88141933512405
H          44.72258922615377  101.46251898791390   69.61560581881649
H          43.48893800705059  102.72586080200789   69.45060341265297
H          50.42668952271239  103.95717198434922   72.14782166389412
H          51.36962103717715  103.07279434260911   70.91989263786395
H          52.43654069329904   98.93598340731410   76.76783211751366
H          53.60631358023259  100.12705555277709   76.16079492541571
H          59.68472246559769   94.73659541348520   75.30870288740890
H          58.40599567547441   94.43664710957066   76.51540513138687
H          64.59705243872551   94.17839418616970   76.20055155580080
H          63.40698000638889   93.57871710096427   77.37420843562165
H          70.48587524791967   99.75756187167202   83.04573159592881
H          69.29095452189661   99.15661884220255   84.21314854405739
H          72.80280217553810   94.35554004533492   85.57213805764019
H          72.11164279721885   95.26666182469229   84.21852446520343
H          78.15741172783686   88.13078755798215   77.95416100674453
H          76.60851349694514   87.53070356756635   77.38150736489337
H          82.06051005131690   91.34853022212859   74.87709741192549
H          81.09093249043408   89.89248985544999   75.14831882027684
H          51.20442513971723   91.82610397429620   53.83150679478386
H          51.28072552980287   91.10503798046724   55.44923979435787
H          81.90163140774425   87.82993174968937   64.91488051138737
H          80.78951017263419   86.44628430223939   65.03696111221248
H          81.21262442242784   81.89471780768370   62.14629994881404
H          81.09823037029301   83.32233976217704   61.09233480611596
H          45.06297686838486   83.24459305497464   54.51924152740231
H          44.32002505208444   84.30728387450790   55.72479458284169
H          48.09767811383841   83.08276812984928   57.95801942940771
H          48.97242118924329   82.26484858953046   59.25341203178026
H          71.73503345968379   86.51683033576120   63.83978338303961
H          72.24398464603594   87.88743701715637   64.84715886394348
H          69.48886942230948   81.76370927184155   65.91067822138191
H          68.96128107763872   82.40044399928519   67.48514137021641
H          54.35441613287962   78.52774808953889   50.26739429325729
H          55.61435848141072   78.28808784305599   51.50148820610508
H          53.68333107351857   73.87260657194716   53.79211047424612
H          52.45480228747162   74.38107341869282   54.97508685998702
H          76.74517217665060   83.44058402343886   74.41847464313457
H          77.50672008883916   81.97976452669803   73.77396068810285
H          76.47603402428649   78.21869621184419   79.25153452026760
H          77.97515774028021   78.92482080731612   79.90636702578124
H          60.32985859111881   75.41017512545181   58.80380302034282
H          59.76869453670576   76.25365738319461   60.25831464059209
H          48.40831931893868   97.08837093736051   60.15445438302155
H          47.64314849006735   96.32208884474583   61.54993783081539
H          47.98272567221120   98.93600159858262   61.54198144207222
H          49.63420491341915   98.55749293072722   62.00978560322837
H          45.02144856965259   99.21295041722877   72.58897256219561
H          45.32144524378843   99.79602671356491   70.95896801733338
H          47.30340808740826   99.88542176083614   72.61935812911194
H          46.46621694079328  101.23897859268436   73.38189451357852
H          53.93788615742145   94.39124162490768   76.46199886619560
H          53.96636156316877   94.28779000059163   74.70128590598829
H          55.40655304837069   92.59791570590178   75.72152479394062
H          56.30661671076368   93.83599081678629   76.59018056415805
H          67.17685681656761   95.06562323394080   80.03204429400421
H          66.84822069912214   96.29228474329149   78.79839620064133
H          67.21611622800653   96.84359960172308   81.77566452493387
H          66.89833267547444   98.05767335549540   80.53453055781233
H          74.05927369605317   91.25631406234577   81.98483434670874
H          75.08716913554964   90.66629300080437   83.27820505962710
H          76.02520072125490   91.45935258583596   80.47424068846526
H          77.08168860222726   90.88956053539060   81.77527612437169
H          79.43816547784320   90.07862355243137   70.53063202612087
H          79.29205200242295   88.40916449897692   71.07311969763900
H          79.01784124572598   88.72531575360571   68.59892197862440
H          80.70598666521980   89.24037648914734   68.50860552471481
H          50.25101707613969   86.83415547463370   53.04169825571784
H          49.86321300187543   87.56635157346187   54.59899273902644
H          47.71596194071405   86.23324537641500   52.93511936533705
H          48.74670373920510   85.29178631074753   54.02704485234641
H          78.80505857725441   84.96814728776435   64.51219222794943
H          78.58228147927267   86.22490192397552   63.28827768468295
H          77.30404874072099   86.35116999272140   65.58281011988346
H          76.24190411665823   85.13813642528090   64.87041598150090
H          49.44642060395231   81.25148384185096   53.64869591198316
H          49.99339404756912   82.93592858644968   53.68974472326411
H          51.08028096108509   81.73676154203439   51.83316068244616
H          52.27859851015401   82.23866379476087   53.02648617054584
H          71.64104343503026   81.11588798861510   71.13861574877556
H          72.09088516851101   79.48139412657176   70.67141386527493
H          74.52899883144671   80.33074826111907   70.55234885797519
H          73.81677594582625   80.14435081294732   72.15110253133224
H          58.03537740846275   73.18603368468263   55.63583419774363
H          57.48759269368329   74.63205542358217   56.49293779077853
H          58.60206915127085   72.12950746657943   57.84543064104966
H          59.54089899852612   73.58039499845718   57.49128677713385
H          76.22028105723406   81.06862247933560   82.62472956692616
H          74.82923049184893   80.21616276523528   83.29952248382064
H          63.60570601371209   73.70923245129126   61.82271543221210
H          65.27294910721233   73.56987637755081   61.22194694146405
H          75.10720634508634   83.23943585326619   82.95548758841464
H          75.26720292961635   82.34198735085047   84.46871999587260
H          72.64415269594436   85.45789168950384   86.30919354796617
H          71.62741776453015   86.28400803123816   85.11723855670522
H          49.95251525133408   95.86206562937417   62.47377637611167
H          50.63009354450739   96.45238707589832   60.94283924644436
H          47.11615971146052   97.66983459756780   63.49193590685050
H          48.75727791556451   97.24936231710339   63.95917069524989
H          44.37912521409774  102.08596764996052   71.81710247299272
H          43.85434891733430  101.17355013437233   73.23904907923522
H          47.51377753122967  101.10251411369723   70.51818876161865
H          46.43269900637408  102.38168629924573   71.10650756388713
H          55.29848589919486   96.31877383970975   74.53510916978529
H          55.71766338370171   96.23947531900018   76.24754121872031
H          57.20131933654463   94.73717377943277   74.49060124985682
H          56.12614342177469   93.69032427145382   73.54590724574167
H          64.71075460784112   96.86691846478168   79.94749675084329
H          65.02755174360490   95.59760190266587   81.15221771804480
H          69.35909370553367   96.24200207375384   80.66462286855774
H          69.01941523354733   97.42870743322999   79.37839976496164
H          75.33606350173241   93.45017319915550   82.05352264732240
H          76.25857603573505   92.80982682154333   83.41873210851674
H          75.73649830375649   88.78175421995165   81.90312849934172
H          74.72772256692178   89.35907280834341   80.56902914417013
H          81.91096115393697   88.36813543484563   70.91840389980509
H          81.78642697117320   90.13332620210561   70.79884948551775
H          79.68612206153470   86.52527670673111   69.48230372475166
H          81.39657815087799   86.97772748500316   69.39321551117135
H          48.02544474200696   88.89194344916908   53.29905249216414
H          48.86657523359349   88.35007134404442   51.83517441137741
H          48.03697411733344   86.50692190915188   55.95107694695582
H          47.20212858772992   87.73611839800265   54.96021887071063
H          77.24156259581756   83.48637860422539   63.38338228496048
H          76.86153028193226   84.72488644057434   62.16148335235642
H          76.75293798339975   87.98840114001872   63.93129052526148
H          75.97448534734053   86.79502507057917   62.87543591608984
H          51.69683265879480   82.23959843042925   55.44605190420945
H          50.83165892509708   80.68826534286022   55.55604077697157
H          52.37408753631685   79.94865144132780   53.93591263892706
H          51.01753117587217   79.46785329001649   52.91093063084101
H          73.00209907600757   81.80965083087187   68.97089150265623
H          72.69712818295059   80.15769373131370   68.47064186147405
H          73.27986262054354   82.56228222960479   72.22645772498390
H          74.01016221491550   82.77933617873471   70.61752824655809
H          56.32731377559236   71.83087483129938   56.83038487258575
H          55.70965330937745   73.30982861459638   57.60615342156753
H          58.00924318073974   74.91523115678015   58.95219074243256
H          57.06180520847272   73.45279356019799   59.26037784035066
H          74.73805863440117   81.96447096765917   80.80741193773983
H          73.42315095097329   80.91903161031694   81.42230323555292
H          72.85921887050628   81.52835172496509   84.09197564114720
H          72.74128951029459   82.78296419352908   82.83221903142844
H          72.18252231720540   90.08940002493337   84.23808205582856
H          71.53471994307804   88.70485848612992   85.11941258304982
H          64.90959617462623   75.43742653603178   66.42381379184162
H          66.22186062664046   75.19409632849477   65.27283868215270
H          65.77708078695291   72.68826769662121   65.42802222188247
H          64.29941950555977   73.07028739222653   66.32965182646279
H          50.25809033984861   95.29057512952494   59.02900616776921
H          47.52404706356219   98.28044512949432   65.84783821954035
H          41.88978849044025  100.68768965382827   69.67169186318135
H          49.57017972526577  101.66059172325036   70.55793691102868
H          54.70280239829249   98.47841781142442   74.95629953416565
H          59.57986730483594   92.19044409309228   75.04117037016910
H          64.51542878380262   96.28253096031710   77.73688651723850
H          69.63694662508570   96.95855158517740   82.80180274645575
H          74.54653524262145   95.11581647129471   83.32768276305819
H          75.83896846275650   89.83223158724068   78.51209257943182
H          81.18458645854992   91.30514637129406   72.53895686568258
H          48.85540234740702   90.29072125000378   54.63620329777758
H          82.28526599607954   87.54517188528492   67.31762015103754
H          47.25767435365992   84.23048797175998   55.67461824955954
H          79.58485096657922   83.03779797042110   63.63340882730029
H          49.65361204934467   80.67201730109223   57.30377535894266
H          73.91413135983842   86.19803769701615   63.21719300045011
H          53.64978487328373   78.34257863548950   53.10728309017346
H          71.73823120137124   81.68539432229983   66.79733461713276
H          54.31176771427983   74.54951946345039   56.60247765310544
H          74.62162696150055   81.79084553472767   73.95476443206645
H          76.63943110421252   81.05057162803544   80.08846449050095
H          60.55376061311803   73.89151887271598   61.27639605417004
H          66.07075634897194   74.04280740537719   63.37415680322120
H          67.31372299524367   73.65446534954914   66.96630963273195
H          67.29203667346628   75.37361281000905   67.35405732238647
H          72.89920163396867   84.96232038296205   83.40520156552768
H          69.81036920270117   88.44696454888705   83.24528453344233
H          69.60923284779058   89.81496585741134   84.34928139583253
H          65.27621584076337   73.38270252332475   68.48777534722633
H          65.50237790746368   75.05633998045720   68.98934005437107
H          69.39649006106623   90.36712478291066   81.97709820856554
H          71.00264467841851   90.11518947532645   81.81670210891507
H          67.27909410739331   73.39029142062958   71.48552707330317
N          49.82464273315825   94.51106959070889   59.51125946447820
N          47.85906710349382   99.18020060559867   65.52127598982462
N          42.78224130500050  100.87825083468313   70.13446949067472
N          49.50604676142149  102.29475727103686   71.34730250115607
N          53.88277075970875   98.19579564885241   75.49185633444756
N          58.82562859044235   92.83683357937259   75.23450413867300
N          64.38985667520592   95.29398258243731   77.94687264496869
N          69.65538743832559   97.94253962021175   82.56534584527432
N          74.02990127814154   94.49636872565161   83.93863110217291
N          76.49272709789938   89.09006659072466   78.74003695908725
N          81.19195379087927   90.51700322209716   73.18570934426126
N          49.76742284846576   90.38664267501719   54.20332009926301
N          81.53545252249798   87.08938735981187   66.82238269401446
N          46.33527728564632   84.60211622218443   55.47360068187747
N          79.80210787604967   83.33874236781978   62.68361760650685
N          49.43486606116295   81.66683800846225   57.31064572319070
N          73.77776458778133   86.76464146327362   64.03712788250787
N          53.70107304181599   78.75300775018181   52.18862482239441
N          70.94218204820343   81.85580671191869   67.39990193546284
N          54.37600924416790   74.07422524977136   55.70674547839499
N          75.45433109594036   82.10861194355066   73.47153545336384
N          76.27287168693091   80.10654884739286   80.03853013843427
N          60.02894579412658   74.18147320553155   60.46131802262959
N          65.07592588761888   73.91209848483012   63.24298748074681
N          72.89245097666551   84.78060608712821   84.40261306380471
N          70.28247649108422   90.38317474872085   82.47933361951553
O          48.97497920882819   93.72020999367263   61.44802438247710
O          48.66932768385114  100.34453491744117   63.75917806737074
O          41.96530444203830  100.00405102562632   72.02078283068842
O          48.20868993286481  103.12684132875127   72.99590791271446
O          52.79926887215094   96.52227733686958   76.55161832839741
O          57.61902360747708   91.64284891880104   73.79909346245464
O          64.34657719103741   93.71385293367766   79.55165030418530
O          69.75369815338956   99.39645981827577   80.84220833438624
O          73.52589232614707   92.36244897416968   84.47143034301114
O          77.55570394162599   87.95781770337570   80.37962024403373
O          81.05323359281635   88.27178051266543   73.35789124402989
O          79.50690387392197   86.12148063718230   66.96587462526537
O          51.03291714775192   89.74894976787085   52.43792297307429
O          45.10781378225364   86.33345036028607   54.74319329897028
O          78.80787995768597   83.96474606847136   60.74968345173513
O          74.76833956075458   87.96026163829008   65.66939780789059
O          49.28279278056993   83.52107754673851   56.02304057147957
O          52.82649670782799   80.25043938089046   50.74949591426994
O          69.95570270913548   81.33752860445169   69.36186561155245
O          76.34238627253883   82.89652336324556   71.55139753585020
O          55.56315565978660   72.64251669933417   54.42430475555142
O          58.67505480771025   72.47820614437660   60.92228841031186
O          74.48548523201532   78.78748508164620   80.47345137139013
O          72.89796904471788   83.20302491114442   86.01766366702363
O          63.05251365156584   73.58516728758343   64.19519345069340
O          66.65989568613891   73.85054709429387   70.84408156312530
O          68.06720418173765   73.14577644510031   69.28190283109947
C          71.54335495651820   89.00276534658819   76.62716129468392
C          71.97601203144836   88.51468316342677   78.01013713265900
C          58.29656514544686   88.04426988686041   84.80801317447509
C          58.21508850432803   89.52277025132953   85.17589174441503
C          52.67483549154419   82.93291908353629   79.74958267675710
C          51.48583896058571   82.18036318825853   79.15315854191904
C          44.87569353580431   82.92907275138903   68.40343949114661
C          44.07713342732681   81.62685807148236   68.37552206173092
C          37.13359588311022   81.45340431213715   62.94216219879534
C          37.78057219249141   82.53668754486579   62.08147261090075
C          77.88492915100166   85.00852079138330   83.40203445843349
C          78.63740490334546   86.32563096146569   83.57724160647103
C          37.76234800012555   87.22693056484225   52.51470925694623
C          38.49338833049481   88.55010939905627   52.73102537593580
C          84.93000971746338   87.68004820234050   77.04132458000969
C          84.51708056240390   86.34303644266060   76.42136794010582
C          42.87156870706518   93.83341514960890   64.13059674246324
C          43.76050476625286   94.87129151302517   64.83878915076407
C          76.22592092490980   83.36303882395089   67.83444667488459
C          75.24639896973700   82.50692057944953   67.03509693966828
C          42.13568649286758  101.23812467115377   77.23922116913911
C          40.99398151116401  102.24333163749381   77.40133422425187
C          84.13602412886915   80.26314691866192   65.01094267008243
C          84.80730178436154   81.59200374377568   65.36591699928772
C          78.67601294390322   83.94740034104623   82.63734072692358
C          72.69661811479038   89.32200112552880   75.67272576164379
C          70.85014064629109   88.60826937715818   79.04572112290174
C          59.40512959987429   87.72173075765924   83.80747774315620
C          57.11006579222475   89.83732773541628   86.18830762303534
C          52.30622412257981   84.05250099021994   80.71908987905880
C          50.55323044163866   83.09696482695699   78.36714532745424
C          44.06899427793015   84.08795472843613   68.98809228099272
C          43.91574987005374   80.97589916425370   69.74805749667468
C          37.60834945599981   81.49070909272035   64.39544761017228
C          37.45361012104020   82.40550377552917   60.59298647685998
C          77.70611491051504   87.42470036118264   84.08321471569468
C          37.93346916236735   86.67812780694989   51.10007496039547
C          38.61053467910256   88.87069808398508   54.21879353764409
C          84.77323286049058   88.86731566652217   76.09094889961477
C          83.13749166728088   86.34877718277298   75.76498711650098
C          43.34587711260701   92.40160938660385   64.39262997895781
C          43.02565377932534   95.68642404426232   65.90209209210769
C          75.66325305371106   84.77479348046852   67.99669748012398
C          75.49163545023285   81.00164221737504   67.09670782642306
C          42.13693104563923  100.52238778435999   75.88763829012451
C          41.21107791983776  103.54075401440453   76.61590719743447
C          84.07941413429774   79.22354712720073   66.13372211648482
C          86.27399264714977   81.45497490784906   65.76826613040505
C          36.16222118219101  102.75360237816882   65.90891462247275
C          37.69010782911127  102.78588951103698   65.99639400755716
C          35.40606663549514  102.93378735091272   67.22678343761052
C          79.01281491484033   84.36288755452966   81.19534293561190
C          73.63619233250901   88.15212822818754   75.37717360850988
C          69.59253075572572   87.85248851960111   78.61778128499282
C          60.80734585867575   87.93706006146566   84.37851381279455
C          55.68719579232490   89.80953566839949   85.61887039296342
C          51.62383464168148   83.54076211670362   81.98596101849043
C          49.58187504463823   82.31163469297965   77.49616129628926
C          44.92296011652763   85.30547837552042   69.31793374403760
C          43.13212927738464   79.66480561470789   69.65710343063103
C          37.20311200749229   82.75724715307693   65.14640108643856
C          38.22079188215962   81.27922576810593   59.88710593506639
C          78.36703239870940   88.79671722375244   84.10012109919687
C          37.08966525286856   85.41813977008951   50.88318022870281
C          39.20281644101095   90.25594319191886   54.47560108075341
C          85.28718678497943   90.17244722493960   76.70781488261652
C          81.98579226412508   86.75859841292097   76.68439665430208
C          42.40473801304488   91.34175438935404   63.83011271593884
C          42.49448273248129   94.82110468203344   67.04133896100586
C          76.65666449802970   85.75119089082689   68.61718680158252
C          76.61279379049932   80.49223288485656   66.19329065829947
C          40.87275956027730   99.69268703459565   75.66744222488198
C          39.88302585305524  104.21270496581941   76.24002978525390
C          83.27367594620294   79.65793278299732   67.35728665928976
C          75.72713796847026   84.73329725987881   77.89036898749667
C          74.51877544782965   85.41610558859516   77.25350227345001
C          65.39117179937318   86.82549264914516   80.26915196497741
C          64.19914517751182   87.55150278169531   80.88512179077226
C          52.00280683843887   86.63056188480421   86.63345745536724
C          51.20469388296104   85.58528292229411   85.85287783537993
C          47.52167530873292   83.96639981718828   74.11434180685856
C          46.92397825552050   84.99494762534553   73.15790966584483
C          38.54895164422734   81.32553094955772   70.43630542202959
C          37.45077653389669   81.98373480771460   69.59675751937591
C          36.10576213119554   81.99272522836308   56.03254796550416
C          35.84650126528858   82.39907570203779   54.58444987790806
C          81.45626115559703   89.44980646000523   80.88081592193839
C          82.05755489986112   89.69356019791751   79.49650796077232
C          40.99907338079802   91.94242313026206   58.24320795595777
C          41.48766330043071   91.95321148101131   59.69513800758321
C          79.06169274178202   85.37521703833194   73.83482602343379
C          78.57636303581106   85.82214838812610   72.45815281596970
C          40.54394616421302   96.11547436835872   71.03684916292050
C          40.26019655238463   97.04045986067312   72.22360039745466
C          80.27785709081171   82.87269956521115   67.39326885820152
C          81.71716152975347   83.03684638117204   67.88433472754829
C          86.90382865870438   82.80400570948017   66.11308420792059
C          39.17826596203155  101.41343753978147   72.81720552882128
C          38.98190491807098  101.07170316714374   71.34340487880354
C          38.29040870893696  101.65400551251786   66.83328370549587
C          75.73744211967568   84.95131109072021   79.40481916502344
C          74.53146545383115   85.32114781364871   75.72311091021693
C          66.71175073494841   87.16200797466573   80.97868245916811
C          63.81274727121541   87.01795194929585   82.26135591256879
C          53.40436635924735   86.83638803598294   86.05710933508502
C          50.65136659028312   86.15401019277678   84.53654745606882
C          46.84854431570933   83.97741334407988   75.48970806249551
C          47.72837730839898   85.06030930845409   71.85497329229761
C          39.44221854740588   80.44576413547621   69.55975091176909
C          37.97299509111483   83.20527783930575   68.82262262620509
C          37.36799866848214   81.14083302626335   56.20856961486134
C          36.97054694933545   83.24325911535813   53.98308265588813
C          80.21223688460952   90.29673107010160   81.15519357278944
C          82.75747769222077   91.05266078806365   79.36795410415893
C          39.64168108515330   91.24935774457531   58.09992122430235
C          42.12237394119111   90.61949223938866   60.09987135466016
C          78.67683286254072   86.36718728532118   74.93850090431424
C          77.05949412148667   86.02244760033479   72.36172589082051
C          41.96303507231055   96.31036636351662   70.49172974645867
C          41.03348792726123   96.62285176685550   73.47548785165736
C          80.16825200375031   81.71717533169951   66.39659511530235
C          82.11630011847957   81.97197204622239   68.92428469475438
C          38.18114784081735  102.45432418897120   73.34092256218567
C          39.36730070383594  102.22256326132410   70.41190133963157
C          35.67168588513763  104.25884414126163   67.94320508794104
C          86.04473555147476   85.38227932506202   69.47224179642208
C          85.13655555840198   85.37185206518595   68.23876252079162
C          76.88932801758749   84.17947496617745   80.02419998936766
C          73.20524893397948   85.68631261220526   75.09453772555359
C          67.86542145355992   86.85034824893432   80.04851919758704
C          62.78736242208101   87.92687927804994   82.91846646170940
C          53.90173679868071   88.26519756120332   86.24766605254746
C          50.41563569376488   85.04862976873382   83.52460784952737
C          47.48215169079193   82.88676774482798   76.33770566637935
C          46.94236592653426   85.67859960605959   70.70862310230403
C          40.77141544880902   80.10218524621219   70.20337930424550
C          37.19621345657382   83.38999655156196   67.52571311412964
C          37.41944174393618   80.67060030881639   57.65295969226987
C          36.44669326544419   84.15239427766976   52.87852865384161
C          79.78614992055410   90.08881139982414   82.60124351778431
C          83.43787570992508   91.14314169631571   78.01270345300931
C          39.14436233744100   91.36709808620434   56.66628835460691
C          42.12730088475506   90.32719050887140   61.59053828134766
C          79.63718125404225   86.23139724633461   76.10884919046684
C          76.70553668345657   86.48441433147210   70.96048615478341
C          42.31341113063873   95.26800706470007   69.45144844743254
C          40.75012041259581   97.47799921019423   74.69264173524381
C          78.77501396420355   81.56117629515556   65.83247057946474
C          83.59875886011412   81.68729011911600   68.84739592662463
C          38.48508926440928  102.75667826465481   74.79410032502423
C          85.44066307626291   86.19022961913917   70.61778421883709
C          39.43768286665033  101.72272658876570   68.98300260701173
C          85.85569235224581   84.80948978278153   67.02764729122022
C          35.12215598266967  105.46805185963230   67.18523258387322
C          84.20609492674650   85.51945391067530   71.21765626975447
C          83.46496209210518   86.46413837913784   72.13227368911349
H          76.95532694763013   85.20186677759050   82.86198716324554
H          77.61373339441150   84.61039461322437   84.38223138329916
H          70.94719340273987   89.90931200929550   76.74361652522022
H          70.89884013455411   88.25103480231155   76.17340589205904
H          72.30993677991495   87.47784043898730   77.94549836339948
H          72.82046524061201   89.11649251347016   78.35502458087808
H          57.35540359988004   87.71772957186262   84.37045451484742
H          58.45616780215215   87.45816841898869   85.71609957662362
H          58.05547090351038   90.11741477867797   84.27364019618820
H          59.16899974332750   89.83354173553911   85.60637695425075
H          53.25398471818547   83.38037458801716   78.94121797635178
H          53.32161570177010   82.21801905924148   80.26518999479396
H          51.87114877667955   81.41002593100360   78.48094544549140
H          50.92899015849142   81.67028678192450   79.93993894988270
H          45.16598388911290   83.18638356364657   67.38401061903286
H          45.78888377362590   82.77157957459767   68.98064726838464
H          43.09552253902947   81.83008460154005   67.94523408142740
H          44.59651365175568   80.91317991233338   67.73487721087353
H          36.04919076112542   81.57002741202977   62.91121222381322
H          37.37475640568867   80.47362047147513   62.52638681890686
H          37.43541051188740   83.51336119945883   62.42304891089618
H          38.86511143821382   82.50169624738102   62.21725914033040
H          79.04857383760169   86.63565080268828   82.61736226423525
H          79.46923975595669   86.19309397861595   84.27164842753727
H          36.69962272669046   87.35501482605960   52.72618687490485
H          38.14807494788484   86.49385187576019   53.22680406987674
H          39.49463695417846   88.49009360864233   52.29647206494767
H          37.96006483034006   89.35376244184187   52.22110136590130
H          84.33330155487397   87.84713926519608   77.94074943408546
H          85.97593190095155   87.60574985404661   77.35250084301011
H          85.24385454944535   86.07251266175946   75.65283878252866
H          84.55155518038559   85.57539135004947   77.19876997390796
H          42.87615815316502   94.03298573981624   63.05646036552821
H          41.84047154412429   93.94313684584078   64.46688754206204
H          44.17017275390302   95.57222204150430   64.10915182204570
H          44.60906053077976   94.37159614941100   65.30946793063652
H          77.18460699323164   83.41208157943686   67.31991974801478
H          76.38822276043717   82.91629548954305   68.81758018329755
H          74.24110125996866   82.69794102835604   67.42121308905421
H          75.25377316958637   82.82642126505263   65.99142549179797
H          42.05905343567461  100.48486389443282   78.02705648763481
H          43.08841408128418  101.75524264105314   77.37394845174680
H          40.06095227112080  101.78398742915505   77.07694708292888
H          40.89158243617110  102.49393283584573   78.45891329127645
H          84.66587756834417   79.81900815322436   64.16449097182418
H          83.11272593369901   80.46555783894348   64.68810507860829
H          84.26156372076382   82.07721969710998   66.17424681837392
H          84.74989202297023   82.25202643952018   64.49706544720459
H          78.07568330946857   83.03706918176944   82.59941902574600
H          79.60613890415929   83.71974117518904   83.16028165685969
H          72.27097250105697   89.67816922625673   74.73153850859227
H          73.29896667229934   90.12567232680355   76.09271869226762
H          70.58343051582054   89.65629752836203   79.19961982427678
H          71.20596160306057   88.19954334806452   79.99513652690342
H          59.28334906277791   88.32386069578139   82.90529386435644
H          59.30656723882046   86.67030911354945   83.52733020429682
H          57.28614128273758   90.84203345441611   86.57695731668336
H          57.16972516308751   89.14333956195736   87.02834396921483
H          53.23032968962389   84.56139634060361   81.00104034829866
H          51.66576669424856   84.78392215595017   80.22678839925619
H          49.99344501978553   83.73742297222384   79.04722348881005
H          51.15042772849820   83.74642048342655   77.72421102051283
H          43.56646398774588   83.76537915416009   69.90214870600360
H          43.30013698447608   84.37575085080977   68.27406509337166
H          43.39874941045720   81.64302326438811   70.44050927854832
H          44.89967483026896   80.74664144721918   70.15770159472345
H          37.19791439886085   80.62771137448757   64.92390600050710
H          38.69766793911895   81.40458672155627   64.42000944888075
H          36.38304090950508   82.24397553390320   60.46297971261387
H          37.70259158436819   83.34717985866951   60.09886790317474
H          76.83036984476013   87.46438728901100   83.43234856021958
H          77.35969209847580   87.18936162918493   85.09088787053152
H          38.98737695330178   86.45035316219251   50.92132508531010
H          37.62585160091111   87.42887550126645   50.37111073764326
H          39.25781697754138   88.12713281958155   54.69257954068956
H          37.62780154427096   88.80549727921733   54.68876606718618
H          83.72270773778568   89.00879177995994   75.84012881909501
H          85.31079195495558   88.67199224123635   75.16309326518393
H          83.16283170723372   87.03210915316069   74.91556689853957
H          82.93328226305876   85.34842492966816   75.37625215940433
H          43.40230873186526   92.24366436497303   65.46890624230907
H          44.34592334036327   92.26386870420743   63.97200206972629
H          42.19142161228066   96.21796904521389   65.44071698982368
H          43.72278307669225   96.42251514457801   66.30939884277404
H          74.76182941644041   84.73274983761617   68.61557764965278
H          75.37785443320756   85.16371355576727   67.01861072223265
H          74.57752623596683   80.50133977926109   66.77521930847860
H          75.69960651763664   80.69483640104198   68.12241022685036
H          42.99917253845975   99.85375132025298   75.84520715870090
H          42.23535574460298  101.24254100069400   75.07342813561144
H          41.76392812516282  103.33506748226131   75.69762119933246
H          41.81201911526239  104.23118999308387   77.20893249771729
H          85.08822363556550   78.93675862176845   66.43826507045458
H          83.59303587787190   78.33140444459491   65.73756910091019
H          86.37118835698638   80.79679964918687   66.63323619277212
H          86.84105030994023   81.00719898505407   64.94957315816258
H          35.86339567222985  101.79459267920524   65.47765812787617
H          35.84242395883106  103.53010220911004   65.21230253114196
H          38.08213228388774  102.70034125258432   64.98059497485956
H          38.02949981852879  103.74337160839086   66.39353186846583
H          34.33886349571373  102.89205811957854   67.00323502038228
H          35.63008052806503  102.10807782070043   67.90454761981313
H          79.33290311131663   83.47682064134698   80.63961168283153
H          79.82014567767222   85.09424560050276   81.17730670028860
H          74.33496796898200   88.45202257635823   74.58478389269079
H          74.21679060898678   87.91970964992602   76.26711795131044
H          69.82816111405874   86.80277365483725   78.43020871117898
H          69.18543141498193   88.30801363884372   77.71057983153803
H          61.06667725559954   88.99681623631898   84.38419062382246
H          60.84837828833832   87.55385432261633   85.40445983771346
H          55.03454247114319   90.43270699548850   86.23610023195877
H          55.69009943333979   90.22099686535495   84.60272077173879
H          50.59608475185983   83.23053153355184   81.79040993483169
H          52.18033680932768   82.68530273786051   82.38902517829081
H          50.14266847163398   81.71805970811475   76.76280875882011
H          48.97962254734286   81.61420666554628   78.08288480736344
H          45.49151906551371   85.64197545930516   68.44672931927346
H          44.28476382452759   86.13719205586949   69.64172296928780
H          43.59692292777395   79.01729229740846   68.91147225325641
H          43.14989162297771   79.15147802530797   70.61786255102794
H          36.11574070727286   82.84469549015945   65.21275906362801
H          37.58459278180335   83.65128052134484   64.63935770672698
H          37.76953905745350   80.30953862969358   60.10373312712605
H          39.26320588107018   81.26607332586691   60.22192620721910
H          79.23470175712788   88.80962887541469   84.76699810046605
H          77.65581708499009   89.54597169234728   84.47250703290651
H          36.02740830811035   85.66094460175390   50.95609042090506
H          37.29352418994531   84.99496268217031   49.89493789408509
H          38.47467253610230   91.04293033855089   54.26900427932020
H          40.07236762380299   90.40970829686306   53.82326596568282
H          85.09666951631220   91.00072178950766   76.02241025923999
H          86.35947874048881   90.11185957131190   76.90899900232587
H          81.79567240035632   86.00765151049488   77.45512732609015
H          82.20786936941658   87.71373793068514   77.17141347511227
H          41.40561101778921   91.49923883268880   64.25064312496686
H          42.72872044534186   90.33936329261843   64.11945279837073
H          41.63131608634814   94.24231806606670   66.70058400422239
H          43.26234151173226   94.12568090942361   67.38857719968149
H          77.62502358529311   85.65526694251554   68.11466094156329
H          76.30797846457200   86.77911767052360   68.48924646126397
H          76.57387787849922   79.39902749642447   66.19449826295005
H          76.47147929648381   80.86258565535981   65.17443998111062
H          40.67310574808542   99.07014277636529   76.54488408691968
H          40.00903833624611  100.34444702480195   75.50259690630462
H          39.12208368037350  103.99524169891228   76.99243426911046
H          40.00826499658526  105.29629330786840   76.17215823949385
H          82.34220960641974   80.10637199751598   67.02152067845184
H          83.02791831084343   78.76636490231786   67.94458189583727
H          75.69615065645952   83.66200566639671   77.69035059594350
H          76.65835669220550   85.12057826255743   77.47118749921954
H          74.49518676765310   86.45834406540462   77.57823633189535
H          73.61190234809339   84.94031686505842   77.62697710815681
H          65.22241002391550   85.74700714014959   80.28951811682022
H          65.47703227956185   87.12923665299363   79.22398586768371
H          63.33347780940659   87.45913981341712   80.22673348463447
H          64.42759009810658   88.61375795196426   80.97726043017018
H          51.47554012982850   87.58623344291166   86.61980124884408
H          52.08336323247637   86.32500501193964   87.67704601935795
H          50.37160413942140   85.22641023934247   86.45838579289554
H          51.84999147575210   84.72740341787548   85.64701540386220
H          48.58972743912620   84.15858097108362   74.23244235447272
H          47.41721371201874   82.96790945282419   73.68031953633637
H          45.88679120602352   84.72581022717162   72.95378503981959
H          46.89791799277292   85.97689601211010   73.63256713821210
H          38.10660271835080   80.71773478629518   71.22635752485289
H          39.15240096338277   82.09641983221294   70.91946668147592
H          37.05714792313544   81.24639716266620   68.89365728779154
H          36.62507693955062   82.29439473378244   70.23717439999888
H          35.25121515978366   81.41902373098489   56.39575241361652
H          36.19014820738839   82.88982650777845   56.65199986346269
H          35.69354436272310   81.50858948784236   53.97242767095354
H          34.93016391456712   82.99190652361541   54.54400011924870
H          82.20386813514956   89.66316159229659   81.64796040480722
H          81.18363103469854   88.39507754384969   80.96133525887635
H          81.27237453768383   89.62024710586935   78.74080468554492
H          82.78343262663088   88.90022316348455   79.29971340682458
H          40.89431371499453   92.97029359744165   57.89041615714461
H          41.73563430808843   91.44322665832578   57.61037227113395
H          40.63512262650706   92.17104170218694   60.33929424183025
H          42.21029038364978   92.76378434380275   59.81252582927007
H          78.66913121265895   84.38728325905188   74.07274488770942
H          80.14897636295530   85.29464274507934   73.78615685250739
H          78.88434367511221   85.07597178312234   71.72472513571658
H          79.07656383186216   86.76018874928228   72.21411604816578
H          40.41720411110810   95.07484621417368   71.34337203609714
H          39.82027704544515   96.31917150492990   70.24431052162880
H          40.52632291522673   98.06208439591362   71.95055726861432
H          39.18944761849019   97.00849295373982   72.44017818258615
H          79.62299951361625   82.68262557799970   68.24440162654501
H          79.95483205912412   83.80199754873328   66.91870865258592
H          82.38971893049076   82.98046578305397   67.02365446471683
H          81.83781172985321   84.02979000688836   68.32199682045716
H          39.07383787912622  100.49615752073511   73.39686052977271
H          40.19973792924314  101.77233881544569   72.96199331227618
H          86.90651837774327   83.46350828356110   65.24075364055685
H          87.94405941696230   82.64791373671093   66.42916233806318
H          37.94799354741738  100.78940749144292   71.14556686328586
H          39.62616156584561  100.22089307928680   71.11703367679814
H          37.70117743848677  100.74425649880457   66.70149921598626
H          39.31638338826350  101.44752066361309   66.51748931839015
H          75.83150796094831   86.01261757495440   79.63411784335305
H          74.80354435863968   84.58497513017214   79.83944518293306
H          74.72855684829715   84.28635048280991   75.44171056767109
H          75.31718828565876   85.95483210034014   75.30960810892240
H          66.80531281570593   86.56725109257127   81.88828956622315
H          66.73613896128222   88.21806244670606   81.24444359725030
H          63.43516999773557   85.99818588708355   82.18357241599676
H          64.68991472015611   87.01581352613238   82.91265957881642
H          53.41731906151723   86.62597041546569   84.98607994353367
H          54.12177963974528   86.15724737447076   86.52081214706799
H          49.71016668305696   86.67005885359885   84.72484934972684
H          51.35975467263530   86.87129038614123   84.11748734983620
H          45.78222192240785   83.77631292722978   75.38863561742733
H          46.97712212075159   84.95249715280430   75.95994702492702
H          48.02245441784655   84.05182834928837   71.55534423252936
H          48.63807736347711   85.64204803334550   72.00078948147625
H          38.92613041179864   79.50707872394736   69.34173125000379
H          39.63444327470468   80.94402383539781   68.60897705529581
H          37.86382324089301   84.10369911001708   69.43012854579828
H          39.02810459822976   83.07012784601766   68.58465837674616
H          37.30822140520748   80.26833484750586   55.55702256151736
H          38.25678533540906   81.72330294425322   55.96571989250515
H          37.78398264476972   82.61999707007776   53.61094077158727
H          37.37188277440379   83.90302160695987   54.75892597851730
H          80.45173258320854   91.35202715903634   81.02911022305190
H          79.41268954963985   90.01641422415891   80.46915995557684
H          82.02922092417992   91.85774965166222   79.44443274355572
H          83.49436658274308   91.16629394412169   80.16532266296400
H          38.91456321769414   91.74352913357565   58.74573242035116
H          39.71551135839866   90.19985665912522   58.38317861491202
H          43.16280790279932   90.58269834870137   59.76243251352926
H          41.58995678167981   89.79822270982399   59.61933897543963
H          78.74598746420968   87.38011954926827   74.54234297365858
H          77.66214267016935   86.17552655926001   75.28663539664244
H          76.72904419882141   86.78340722268925   73.06922510843152
H          76.55257221980807   85.08074351028279   72.57161813103735
H          42.67224439398557   96.20637951391919   71.31271342491118
H          42.05352767560105   97.31423456287128   70.07358731953686
H          42.10777808439649   96.68185200259801   73.29109822262389
H          40.76930544103931   95.59651023629033   73.74219081763420
H          80.85615641094486   81.88114321875945   65.56444601457261
H          80.42003005227933   80.78080951545371   66.88976550167011
H          81.53901258389511   81.06141707712958   68.78017015624853
H          81.90549848178814   82.35322414195210   69.92472583514960
H          38.24299476142770  103.37010552194978   72.75218301349005
H          37.16651571549991  102.06092715062738   73.26395854950276
H          38.64814737633757  103.03879202916382   70.48310201693982
H          40.35894789385085  102.59006712716487   70.68702414333158
H          35.19060163198453  104.21874825084336   68.92422439381996
H          36.74064973653837  104.40862278136181   68.10445290300576
H          86.21135095642828   84.35809154550998   69.80594096282353
H          87.00763728382573   85.82007374160577   69.19970429559285
H          84.82665687859262   86.39115509169622   68.00187889649477
H          84.25751108869925   84.75911755615252   68.43567165549653
H          77.82315091470059   85.94382627904479   80.44041877288576
H          72.02912804973127   87.17520792503416   74.47168575588162
H          68.30275021922448   88.83048970660624   79.97086927285090
H          61.78552942941061   86.26567262893097   83.54096660363916
H          55.50225138861111   87.74926301759670   85.09715827026423
H          52.43339649732927   85.00432336808811   83.24950156363667
H          49.07001906654000   84.13770876984621   76.60940604559224
H          45.62983576891449   84.13792996773203   70.90516496189336
H          41.54367704461033   80.08979119022266   68.33725373264883
H          38.64037400296190   82.28067641230669   66.60044534552217
H          38.72313397950040   82.19629858506914   58.04448679415232
H          78.41415099042672   88.68509858647647   81.98453345770487
H          38.27554583331978   84.04762456189351   51.95470081400629
H          84.90145079585028   89.95418377791012   78.76075438476940
H          40.16188026301655   89.63929558498151   56.24350349450526
H          80.89319497215649   87.39524664769849   75.01912097105108
H          42.48622353810222   92.28941848544805   61.96010716522340
H          76.97834755753988   84.57639621484273   70.34573113734635
H          41.69955115679639   96.53256363013837   67.97397213751945
H          78.30067380189799   80.47052754401241   67.46538609992113
H          41.38804016773990   99.15274488592053   73.68310560626394
H          39.81119313409531  104.14129839527318   74.14334480753529
H          85.00439096887601   80.43720572062298   68.21744288939637
H          85.88100902239522   83.00984518422933   67.97490510336239
H          85.17006518368980   87.18641182838378   70.25881910665554
H          86.18351426148045   86.32638031787130   71.40511647378769
H          37.49835798463367  102.22380832620324   68.69567462869978
H          35.60671439361313  105.54852724794848   66.20885524031613
H          35.37130052487885  106.38229124033575   67.75435842208611
H          83.51634216207862   85.18074840362443   70.44572786566160
H          84.49862070589634   84.63751087989328   71.79095954992007
H          33.32904488134247  106.10987702156719   66.44314502624727
H          33.20162777924290  105.25606833566607   67.83747590114696
H          81.68627486322863   86.90995941385542   72.71776091756514
N          77.87266073351157   84.93603842765556   80.51634392019696
N          72.89353571075152   86.98440590034465   74.96243153204868
N          68.56342824131525   87.90254703204211   79.63575970964914
N          61.82221689512141   87.27217844988883   83.59174647975706
N          55.06967089079853   88.50260216397672   85.61656755305003
N          51.55744221098514   84.57937158194758   82.98645861643634
N          48.69645741410436   83.21744370515243   76.79762445503667
N          45.85392403831477   84.96303211796683   70.37288003023853
N          41.74786918833619   79.89217879097247   69.30513078244832
N          37.72905802666580   82.71275099993609   66.49435663043278
N          38.18962234206547   81.43943874303466   58.45148032620479
N          78.82116802673207   89.17182594155091   82.77674587336888
N          37.33979102405020   84.41658659950760   51.89597184671838
N          84.60834883139172   90.47705696015133   77.95113070785294
N          39.59709463799837   90.39061664631795   55.85900079283052
N          80.78093714402861   86.90364745037500   75.90065173943744
N          42.35945696961348   91.38474956926170   62.38160874829954
N          76.81784110352794   85.52752787235546   70.03777857585631
N          42.12476444354844   95.64204847190420   68.17699143026248
N          77.93291832812226   80.89341906951415   66.61612436009231
N          41.01634574999827   98.78597353452308   74.55355434877742
N          39.37781201352205  103.74865151183222   74.96406104724061
N          84.00597508919435   80.59800658116710   68.17610293459849
N          86.18047664639766   83.50881778374551   67.14535753170257
N          38.36689135971705  102.00086830549587   68.23422000694288
N          33.69533156834541  105.31377716121219   66.95249396540062
O          76.90183029367768   82.95560927239643   80.06168056541496
O          72.42074386934907   84.82903047053155   74.69801230014232
O          68.10840659550983   85.69444289582957   79.68191252777861
O          62.85557424485284   89.14199036000626   82.87367174678045
O          53.29426974263283   89.10783165504637   86.87820061065793
O          49.31585835275140   84.60935253455339   83.23943289728525
O          46.95563527196092   81.80119580177677   76.52418949188851
O          47.27867360341282   86.69737469639648   70.13702649024815
O          40.93868086164385   80.00308440494086   71.41158213548954
O          36.17698905362801   84.05210674219445   67.44339969549041
O          36.78965393653966   79.71400553409957   58.05718189682273
O          35.32808928903854   84.62031418382792   52.88814616862000
O          80.30332204971953   90.69548471789196   83.52213665478020
O          82.96760784759810   91.75114246209318   77.06846733208391
O          38.43832366143165   92.28161621927416   56.28818339747708
O          41.95109926594024   89.19756740943150   62.02451929571286
O          79.38625219197849   85.58854915598482   77.11318692633553
O          76.38639145268405   87.64429483516932   70.70811481255971
O          42.74752083646663   94.16102244842210   69.74652621413401
O          40.34046862752781   96.99891376791088   75.74063461910526
O          78.45798393337441   82.01387062561594   64.73124029115816
O          84.43897390858193   82.42333480745526   69.35658782086561
O          37.98520871982967  102.14440203211497   75.72510452210338
O          40.42508081841749  101.14029667930672   68.54866047714376
O          86.11882554370560   85.47882495807522   66.04386192760840
O          82.17153184113029   86.18972198493560   72.20368421986855
O          83.97590488807718   87.39059862578780   72.71592983749503
C          73.60259835124656   77.04763263308773   74.32299349166487
C          73.20438937291121   73.27827535126696   74.50707168335407
C          77.36569999913510   76.68400509499688   74.59865732208812
C          75.44290766128647   73.08534932524384   77.56157672399947
C          77.28196496840133   74.15047822800723   71.77876040635277
C          73.56429056555373   75.81472027866783   79.39866425355177
C          70.37085015176754   74.06341198231286   78.31005431990619
C          75.22519721460407   76.50226798754071   69.63007612088457
C          71.47972372203290   70.72947475201609   79.75464575341434
C          77.62933130021115   79.34021089686090   70.38728380052173
C          72.41074621893414   72.43488259176067   83.02250704826581
C          80.56558461445343   77.19771506209136   69.33214112134476
C          73.52174511130319   74.64740616059885   73.88951324004699
C          75.08230835959354   77.22619880877606   73.97392427010882
C          75.04969649352923   73.28838813758809   76.09386620189157
C          77.70266766109737   76.04189576111389   73.24692504613388
C          74.48568148568773   75.19050421036185   78.34437968118745
C          76.91801435324795   75.03416738598007   70.57781140135305
C          71.63907817434384   74.91826075942748   78.22549298821212
C          76.20701466257817   77.64896072749242   69.34865221797293
C          71.37628437020152   71.88883607386428   78.75637240526169
C          78.88799164287411   78.92813136101393   69.61990546034279
C          72.48084412142782   72.05752625636084   81.53722393842450
C          73.18382198821627   77.98114363829075   75.44979026614759
C          71.69792253777254   73.06605936488279   74.56679561644040
C          78.07443040063932   75.95076525183704   75.72858217981018
C          75.34655937343338   71.60877075007755   77.92295564762917
C          76.42910779595812   72.88953009457079   71.78974575090506
C          74.17530393345073   75.71303426814052   80.78733491309727
C          69.20476678378343   74.87575161195049   78.85167960503553
C          73.87459757118899   77.05611136691063   70.06208363355827
C          70.28876119865508   69.79739275023147   79.57329193178992
C          77.99344719478815   79.76730489584790   71.80227584722313
C          80.28920880144229   77.05430907892882   67.82652872750791
C          73.04098212777322   71.32656043889378   83.85687907574091
C          80.89770183278448   75.84533732851146   69.94624556512984
C          70.23379755039380   73.49535723267518   82.74642062257568
C          68.83582507543443   73.66082724803712   83.27193331262686
C          78.59137782732992   76.28688976273978   66.22953687039109
H          73.04022515166191   77.27128900911778   73.40651712377719
H          73.67359816437600   72.52241170242223   73.86186343407147
H          77.70399095338976   77.72648032488095   74.54412687962483
H          76.47839670074163   73.43924024378963   77.66298904552758
H          78.34595687130722   73.89614749530999   71.67312083180229
H          73.42876822776441   76.87265482853478   79.14366450308891
H          70.16994373762198   73.73190005319738   77.28366393005385
H          75.11451399137744   75.93240931046331   68.69832327307937
H          72.41683624257743   70.20347395394009   79.52870436392604
H          77.18389481084019   80.18561265063597   69.84403832321826
H          72.98635158098561   73.36353982372420   83.13815431660855
H          81.41209589962436   77.89035560197244   69.43810010187363
H          73.03548748260799   75.52606407169711   75.66805038626488
H          73.10331047319495   72.89884747063675   76.58210088900479
H          75.60221444146777   76.21466934622748   75.67516861782489
H          74.11369875956052   73.36114648621169   79.18365769457313
H          76.50662391109626   74.45656336195337   73.72836865740736
H          71.91413723635679   74.76123196116082   80.24008570639543
H          75.12465875534832   75.44911564268607   71.46271204846535
H          70.20749942662015   72.93343667169358   80.06852609795220
H          76.37352025769511   77.95338879556206   71.36621348430454
H          70.78107991991223   70.93510657708558   81.73984537995084
H          78.98364320057810   77.22344208933123   70.74530242812601
H          70.74722971854696   72.28682575129646   84.32618360152748
H          72.12643497762019   77.84353793650781   75.66306631460543
H          73.74866479850485   77.75052098434124   76.34901704093902
H          73.35854111700787   79.01827397666564   75.17558677539732
H          71.23832472897068   73.88052845921378   75.12161596162447
H          71.48716198673259   72.12762586412960   75.07403108452820
H          71.27751546875051   73.03165308525182   73.56610242824686
H          77.74743865151805   74.91420009110620   75.75361556704674
H          77.83237120865203   76.41903015616110   76.67966224997591
H          79.15035411754796   75.98224098980099   75.57882480896963
H          76.00328726028228   71.02400604996082   77.28427811263646
H          75.63931793927077   71.46142541766946   78.95985525709422
H          74.32384246577492   71.26231627050552   77.79185469618857
H          76.57534529792957   72.33225208466968   70.86824120659571
H          76.70830611079974   72.26297225080624   72.63372099211817
H          75.37960227613989   73.15883846297307   71.88112936312668
H          74.34815873981437   74.67463924599090   81.06019523103853
H          73.50568149651527   76.17605221693599   81.50713533872214
H          75.11074205762954   76.26257233142405   80.81102178071109
H          69.00878409065066   75.71787752884210   78.19368859048291
H          69.44081069885092   75.24862794514206   79.84482063911960
H          68.31697300161078   74.25038652985029   78.91672857252196
H          73.97601630075948   77.56073525507148   71.01949561484223
H          73.50398342437852   77.75833510437249   69.32061259404027
H          73.16718112517145   76.23645290207325   70.15160209900539
H          70.36234788812726   68.95382215858544   80.25619216321995
H          70.27984527875860   69.41576740919271   78.55614468797268
H          69.35699110843369   70.33092795884946   79.75404535559557
H          77.08641850730659   80.01742057439043   72.34590728871811
H          78.64378674935475   80.63737291688071   71.77192257737033
H          78.49883388567837   78.95244820672652   72.31430339030140
H          74.06358628789295   71.16014683833441   83.52959623303387
H          73.05859614199410   71.60690986678738   84.90779312415872
H          72.48546001340299   70.39735283905421   83.74566764357844
H          81.76264759349473   75.41081409888548   69.45202203261367
H          81.11217609276903   75.96307993913373   71.00583438398800
H          80.04727787372317   75.17772401055605   69.83202904158590
H          78.51715122292926   76.21154584430296   68.31640103545334
H          68.15663470157298   73.11053634168321   82.62006994378935
H          68.55699917068407   74.71041406581799   83.22307807294024
H          68.73130333315267   73.29873405970046   84.28972893840374
H          79.38654647523936   76.34605143206969   65.48855063691812
H          78.12411700146187   75.30430215923478   66.18260547537253
H          77.83886099495342   77.05031000694866   66.01865839820130
N          73.34361075210101   75.67677299323108   74.71276797043696
N          73.74535312606817   73.17367412290304   75.84620026174515
N          75.93427269639039   76.65538591020666   74.82313282507815
N          74.58322253260775   73.85721868381965   78.43639568509961
N          77.08189105259942   74.88622170669173   73.01122472628929
N          72.28671236293825   75.11775216226626   79.36957653432013
N          75.73458104825298   75.63529763899841   70.67322513611255
N          70.57613935573130   72.88842088817050   79.12933402512975
N          76.68576132025575   78.24267112573315   70.44531967465127
N          71.53199964102866   71.20453835518664   81.12358515604411
N          79.40631769968181   77.75956598011045   69.99400020970785
N          71.03289701638055   72.65229601826989   83.43169050361431
N          79.12536686992300   76.48974324449324   67.55192516896642
O          73.86572795346048   74.75296965886852   72.71979461913449
O          75.42454926036051   77.84449102218359   72.97508469678753
O          75.88423604469581   73.51346368874691   75.22971883554405
O          78.48690707182993   76.56323728655772   72.46718706925030
O          75.07549593681011   75.84629537531490   77.50207654938866
O          77.67145349136365   75.15384934023453   69.62220771281112
O          72.00787305254843   75.35991016260292   77.14729310982693
O          76.48230023628898   77.99575629005078   68.21139293886438
O          71.94605293952711   71.84416387061835   77.67711530520749
O          79.38467447600989   79.64107793333143   68.75711153631704
O          73.37061514917330   72.46023446059540   80.81182062438403
O          81.12136619824284   77.41646700268258   66.99497529829240
O          70.62417212379773   74.02845784626895   81.71883913788129
