259
 energy: -347.414046633144 gnorm: 0.000300872070 xtb: 6.7.0 (08769fc)
C           65.83873719104055       79.78612690869591       65.59122728316359
C           67.07761929627743       79.14910915552191       66.21937778745824
C           75.37693938529809       76.07210635843306       69.65455535583489
C           76.22042393340132       75.46515993668271       68.52728223914549
C           78.77819026759342       68.46205982796732       62.01213014581153
C           78.76192230337463       69.29410660566440       63.29118070257955
C           79.15118918352229       80.42505246532791       62.89205828545491
C           79.72855669879823       79.01106926626628       62.96574858121944
C           77.28057425414117       70.88824069564190       73.37353018138947
C           75.75347386518895       70.91065172680182       73.45875041902663
C           70.12481548495592       76.55185067075418       63.67654055735444
C           71.14952316623693       76.82198348593589       62.57462461055700
C           65.77783237058605       79.60925330592276       64.07405453935662
C           68.37269186085662       79.88250450534758       65.87853335549605
C           75.92797156401764       75.83001475600996       71.05982464751983
C           76.65976195324784       74.01670140734561       68.74631847989805
C           77.39137954977689       68.24171429233813       61.40568319729819
C           80.15330444564081       69.41721429636647       63.90841754099193
C           77.71681872618221       80.44622774454037       62.34874410257782
C           81.14621546577519       78.96446618131183       63.53716058207822
C           77.88162636280278       72.28819155172938       73.23957906719089
C           75.10097003716218       71.43751877702378       72.18536101592959
C           69.20281714732430       75.36783729071526       63.40766625584272
C           72.20385682031112       75.73087571215299       62.34629321235091
C           75.59870986220898       82.95453938513144       71.33513207039844
C           74.20132694623595       82.55982928576928       71.84458016927327
C           76.70797849576766       81.98628434756770       71.75546503421660
C           64.44742407576018       80.09366081473264       63.47594763933991
C           69.59810848244473       79.16045751597295       66.44434313780201
C           75.33986216890727       76.80387937149555       72.08141238741669
C           75.50553224191704       73.05067626824085       68.97983406628884
C           76.67521371355889       69.53296138240034       60.98612184517229
C           80.17805251832368       70.42382234305904       65.05878570145829
C           76.64944594154605       80.35000794472963       63.44580281929733
C           81.20272133955726       79.22290051432181       65.04532854138084
C           79.39126444480850       72.31126156976036       73.48384789726400
C           73.57582775567165       71.47264054142848       72.29359864143386
C           68.27125102086809       75.11018595112698       64.59908302328365
C           72.87613751177581       75.19066637435374       63.61166553912563
C           69.60179923594495       77.03603446412671       70.92199918962021
C           71.11781635691482       76.89118628067570       71.06634443977599
C           74.07727523098228       70.28739330041198       65.57204562355078
C           75.39419527314030       70.72225443784600       64.93050890683830
C           77.66391115146972       74.72199543867600       65.05744567859379
C           77.31006106132050       75.93729637741168       64.20737297884899
C           80.07266863510091       72.25285441179923       68.66163309270009
C           80.62355744714228       70.98457881173408       69.31028857808917
C           70.47101273342010       73.16991694918053       69.67347509960963
C           69.69875189660500       73.68807365718082       68.45842082862396
C           73.91147541259434       78.33098951862617       66.69542421800043
C           73.36396031429858       79.61131002125528       67.33047160823625
C           73.15644577259006       82.57613962145139       70.73062958143879
C           69.18968376168252       78.24082155405756       70.07667504244877
C           71.71765050950702       77.92923135241293       72.01537100318441
C           73.36813582933520       71.41127007157023       66.33341261013145
C           75.18719508825686       71.66990970256138       63.73345405296884
C           78.58456310779088       73.76347765526744       64.31298096241237
C           76.42251981472032       76.90703154459418       64.99145182960159
C           81.16441086818425       73.14866517512829       68.05598988859839
C           81.52134672238348       71.26079521183817       70.52888836294061
C           71.93286421431795       73.63246181233745       69.66874262549268
C           70.33209517605664       73.21972833352640       67.15038248876118
C           72.94772398578016       77.15166196757980       66.83628205727518
C           72.87550064127313       79.37973565473212       68.75948771348510
C           76.65767596784647       80.62532770670219       71.05887132489934
C           69.33177111951734       78.00493980461304       68.58155737523833
C           73.23299568766542       78.00889598231308       71.98307150377191
C           74.04908692271039       71.63330651656210       67.66706883330615
C           76.11816189957239       71.33214567914575       62.58676519275559
C           78.84112066108554       72.49696707402379       65.09586144998323
C           76.01327286563539       78.08360931212550       64.12529849074922
C           79.42728509716063       78.33026698541232       66.48564350251485
C           80.71832186741297       74.58777383507484       68.02274355887712
C           80.84804233494692       72.19540182611283       71.51575104347120
C           72.58362007009880       73.28030535025748       70.98875860235555
C           69.51892262592457       73.48721710157882       65.89863547826425
C           73.13710436593063       75.97091444654713       65.90110992550090
C           72.37770352116578       80.65831462117788       69.40048887506711
C           77.03956579376856       80.68625820861455       69.57852625733804
H           65.82167870959964       80.84954031654293       65.84401856362120
H           64.94897675113118       79.32591127298367       66.02888160146983
H           66.95867767706271       79.13718905558763       67.30485139204626
H           67.15425361140683       78.11038632752710       65.89009335526144
H           75.32094792942866       77.14909513581919       69.48298780156935
H           74.36130377010011       75.67754574156663       69.60640075350672
H           75.64085628726248       75.52776789816974       67.60599787885367
H           77.11703714117836       76.07232251096056       68.38656174234380
H           79.41185812401599       68.95676539036151       61.27224569860559
H           79.22152064785642       67.48549356036301       62.22486293189958
H           78.08790839902551       68.83792819058309       64.01955840117913
H           78.39174488359278       70.29352145761186       63.06841786687304
H           79.16019761237499       80.88373859394356       63.88152465015187
H           79.79312382967213       81.02515353278361       62.24257466073662
H           79.08013747004442       78.38307433628408       63.57515266256415
H           79.74400727304028       78.58860577247216       61.95803277165916
H           77.67181668813774       70.42032448010477       74.28099871040691
H           77.57827013905930       70.27260767549802       72.52163861531585
H           75.45081299720079       71.53342469342194       74.30357673930348
H           75.39499352360257       69.89677742979785       73.65072931532160
H           70.64339719136917       76.38241310136655       64.61972081243962
H           69.51074963943401       77.45034730850118       63.78923271947150
H           71.66189083710162       77.75716760103671       62.81213347303934
H           70.62255640749444       76.97784118031750       61.62996363565027
H           66.59477608385072       80.15798404926741       63.59896594347298
H           65.89964802187332       78.55139447779872       63.83141934003357
H           68.33631380774086       80.89862076866507       66.27800536730267
H           68.49367477508414       79.94709893310727       64.79603195990217
H           77.01317843505190       75.95582649216641       71.06462172508652
H           75.70498412104182       74.81020951656201       71.37811261765535
H           77.22895414428049       73.67382931468296       67.88055408303904
H           77.31834083617422       73.96986447881807       69.61606296656157
H           76.76193510803708       67.70374087146507       62.11903992371834
H           77.50255140291941       67.60799687843263       60.52385272451184
H           80.48582508106598       68.44628725245197       64.28070875943979
H           80.86360732789466       69.73906610792920       63.14173053166171
H           77.57886424568376       79.62234830513664       61.64637903302403
H           77.54266789642523       81.37766302868113       61.80720639287786
H           81.58216112105514       77.98218546980749       63.33766987768004
H           81.76637075080350       79.71185588697888       63.03872656354510
H           77.68418685715915       72.68784239612374       72.24444113743091
H           77.41280346697867       72.95047379668215       73.96915964555639
H           75.44685154000607       72.45233564264871       71.98834389330425
H           75.37808295894635       70.80911141088262       71.33667221384144
H           68.59940566666192       75.55494128919631       62.51707603202267
H           69.78466202975206       74.46193583392198       63.24123356198486
H           71.75655474148030       74.88573861358425       61.82137884916374
H           72.97223293227339       76.15595095809299       61.69752813994783
H           75.85298436130429       83.94776339372922       71.71170082014457
H           75.58684284102588       83.02773953311686       70.24668188085326
H           73.88677421354600       83.24212247823736       72.63482916878840
H           74.21976439828491       81.55291671691002       72.26365056002730
H           76.64332839630320       81.82966321787522       72.83426228652142
H           77.67595784828684       82.45120112012205       71.54721778487534
H           63.61786225158351       79.56899619122343       63.95793581047871
H           64.42692398294359       79.84813063431379       62.40971010041455
H           70.50549100410801       79.66091133724029       66.09334443420842
H           69.59990050000424       78.12466596163898       66.09473122203944
H           75.67837466570059       77.82134203195434       71.86995967063915
H           75.68239379789790       76.52589676351357       73.08688922639870
H           75.89116006027649       72.09172188403298       69.33813085710119
H           74.83163548214587       73.44985817166032       69.74477416487301
H           76.00757413462097       69.32072364893700       60.14331252071527
H           77.39611322312226       70.29181131876136       60.67485457259026
H           79.43309685015616       70.16595577366878       65.81557823919326
H           81.17115810556574       70.42185640874524       65.52717544164891
H           76.70932985244893       81.22685455806314       64.09679193889538
H           75.65912687226283       80.31192851515284       62.98366818666236
H           82.24714109853437       79.32762812373251       65.35784810887108
H           80.66985860403153       80.14197508492303       65.29452039676539
H           79.75573034727121       73.34062457543999       73.45369464770076
H           79.62109681219535       71.88038630480116       74.46309506633196
H           73.27579350341890       72.12405956742182       73.11871406181534
H           73.18688968504787       70.46605297870134       72.47189300090265
H           67.68417195569305       76.00164773506394       64.82863550938968
H           67.59341354060875       74.28986898493464       64.34182987517335
H           73.83029715264408       74.72335358911626       63.33637073441830
H           72.25519708016000       74.42644228488936       64.08953820941313
H           69.15479412976406       77.11771929462597       71.91494534989044
H           69.20089154645373       76.13901596401125       70.44563101343114
H           71.57652252896189       76.98834489581424       70.08042820175629
H           71.33563371374038       75.89390588252932       71.44798497394402
H           73.40630510102768       69.90331296630687       64.79885604316499
H           74.27112167821056       69.47444575435362       66.27612181364351
H           75.91949163258825       69.82419654834119       64.59571754890898
H           76.03091688399344       71.20374904671509       65.67340485609716
H           76.75369777410945       74.19173487217761       65.34159125702288
H           78.15391776109044       75.04733652638349       65.97604074660202
H           76.78680061043151       75.61741880424560       63.30359588412289
H           78.22871964235178       76.44103841269623       63.89678537565982
H           79.36408876866355       71.98050198011141       67.87893191866385
H           79.51577333872896       72.81107981241581       69.41379769180246
H           79.77686069912112       70.37067042928156       69.62468655707831
H           81.19678543234025       70.41041572297989       68.57979897574789
H           69.98534975279739       73.53137288524623       70.58352066993673
H           70.44284917488390       72.07771292054682       69.69227255038439
H           68.67216089632153       73.31773491908511       68.51555226810059
H           69.66495898176743       74.77676812945056       68.49331136401243
H           74.10575952826913       78.53973637266516       65.64423218070895
H           74.85950765067565       78.08522322468298       67.17435345610686
H           74.15776115913167       80.36023572262005       67.33226269253323
H           72.54042405010395       80.00051981910995       66.72770121888709
H           72.14339378730583       82.50698942576751       71.13623709140072
H           73.22673282204491       83.50505055855227       70.14980265647824
H           69.74809726198870       79.13359480975066       70.35589842812641
H           68.12823059458964       78.44762503776720       70.24396622675232
H           71.41519076459457       77.70043572607025       73.04083087768262
H           71.35275894085960       78.92953941760516       71.77594458420658
H           72.34279172768628       71.09550553169680       66.52872135110859
H           73.34756418065315       72.33204461659291       65.75430536065645
H           75.36405659526451       72.70388878086055       64.02492398892925
H           74.16001978926035       71.58931195993431       63.36956308377532
H           78.12010320541194       73.46350824062409       63.36839678498798
H           79.53685931090926       74.24912586953475       64.09095805416189
H           75.52629967505747       76.37204567695289       65.30170030590061
H           76.94640475684514       77.25472192777919       65.88034092371186
H           82.06939080327710       73.10534822149920       68.66302704031968
H           81.40289910413163       72.82639057751507       67.04262586440178
H           82.45118087811760       71.73099802289437       70.20703391337297
H           81.77126311984436       70.31698897258950       71.01591850302613
H           71.96425497167793       74.71216276125540       69.52739425460014
H           72.46345514360239       73.15473392885079       68.84885469554686
H           70.49618591667588       72.14123812554985       67.19237413604318
H           71.29968625898799       73.70676763667821       67.00594905123438
H           72.99602008735799       76.75478498718144       67.85077128714003
H           71.92614514052761       77.49942148846473       66.65761210583449
H           73.69140522335260       78.97523016483164       69.35783498920621
H           72.04787535765172       78.67368021170340       68.75089316522980
H           75.66547401309467       80.18498945251999       71.16610553847977
H           77.36056879210633       79.95496512008326       71.56296640386276
H           69.87862635252893       79.96225848382194       68.38902185910015
H           73.40076358436386       75.96080499297484       72.11452572943901
H           74.59338892920907       73.51594391766390       67.12225611810860
H           75.14693132945786       69.55191797176533       62.42918737071452
H           80.29221545117484       72.05344554101102       63.74071725499620
H           77.49761959630310       79.20158459112945       64.98500602548141
H           81.05245289171930       77.27044249621385       65.85921439251803
H           80.03402269152897       70.58465046830038       72.45968574686917
H           73.07642476807226       71.43736191760459       70.25206517313975
H           69.13481640717697       75.40627280887101       66.52284506665958
H           73.31002782648024       77.14781066239500       64.22284949070917
H           74.29533695111027       81.05997308018861       69.84989174847554
H           78.09771446914145       80.99006683803142       69.49479468987418
H           76.44752223943725       81.44368338706887       69.05504024157122
H           77.26068650310724       78.67140973638415       69.41215344393690
H           77.13333802202544       79.43261876081526       67.98029857558119
N           64.18770492328113       81.51695024123997       63.59175814743915
N           69.59705674303885       79.12333277378312       67.88655026054936
N           73.89531211531809       76.84414254097810       72.05763400641632
N           74.76815102743825       72.75993419033645       67.77044123380999
N           75.89569132225880       70.11267199393902       62.05428671322255
N           79.86073563176062       71.75679650018716       64.60197639677983
N           76.79350086751178       79.16561292712640       64.25705991419242
N           80.59386405279012       78.16970701826838       65.82600234164741
N           80.49233663983502       75.13004466735022       69.21701169430519
N           80.12972068844148       71.58714738118341       72.47189960744724
N           72.96764797700750       71.99686372505565       71.09331489310462
N           69.00731062136249       74.72808233800073       65.78549972222817
N           73.07756524840497       76.23510012866060       64.58983806262808
N           73.35848454876727       81.43381630979626       69.86926418562224
N           76.76159967620160       79.41217377440047       68.92714591405928
O           69.17213844122094       76.91460282812926       68.04888542577882
O           73.80769614268586       79.08757769833663       71.91217701983874
O           73.97834099008226       70.81401636389657       68.57916109765019
O           76.99518577494406       72.07275477840973       62.17816053047689
O           78.21140027843347       72.15822407007943       66.08147678111570
O           75.05402775260740       78.03984653989949       63.36573979038483
O           78.75035273375720       79.33929067454346       66.41316721989105
O           80.58451172560136       75.22085470582098       66.97308807177045
O           80.94987647779874       73.41241490054253       71.44767295008167
O           72.69393594973745       74.08374160840174       71.90881887472128
O           69.37691740265214       72.64104429289219       65.03151429435836
O           73.21138394984212       74.82308217514233       66.33100061757399
O           71.18983505248939       80.95959283144883       69.45266355415582
H           64.94969989087319       82.04450831935918       63.17751498472772
H           64.12366597824672       81.78441868606490       64.56793216234266
H           80.14463310676247       76.07341908707652       69.28718542196447
H           80.66445218336010       74.60390137235625       70.07060171442635
O           79.04889933432071       77.30558716292165       67.24288820066636
H           79.64152366232626       76.49954003116201       67.11723292966032
